# FDF file for bulk MgO

# General System descriptors

SystemName Magnesium Oxide Crystal   # Descriptive name of the system
SystemLabel            MgO           # Short name for naming files

NumberOfAtoms           2            # Number of atoms
NumberOfSpecies         2            # Number of species

%block Chemical_Species_Label
  1   12   Mg
  2    8    O
%endblock Chemical_Species_Label

PAO.BasisSize      SZ

# Lattice, coordinates, k-sampling

AtomicCoordinatesFormat ScaledCartesian # Format for coordinates
AtomicCoorFormatOut     Ang

%block AtomicCoordinatesAndAtomicSpecies
   .000   .000   .000   1
   .500   .500   .500   2
%endblock AtomicCoordinatesAndAtomicSpecies

LatticeConstant     4.10 Ang

%block LatticeVectors
  0.000  0.500  0.500
  0.500  0.000  0.500
  0.500  0.500  0.000
%endblock LatticeVectors

kgrid_cutoff        7. Ang

# DFT, Grid, SCF

XC.functional           LDA         # Exchange-correlation functional type
XC.authors              CA          # Particular parametrization of xc func
SpinPolarized           .false.     # Spin unpolarized calculation
MeshCutoff              200. Ry     # Equivalent planewave cutoff for the grid
MaxSCFIterations        100         # Maximum number of SCF iterations per step
DM.MixingWeight         0.3         # New DM amount for next SCF cycle
DM.Tolerance            1.d-4       # Tolerance in maximum difference
                                    # between input and output DM
DM.NumberPulay          3           # Number of SCF steps between pulay mixing

# Eigenvalue problem: order-N or diagonalization

SolutionMethod          diagon      # OrderN or Diagon
ElectronicTemperature   5 K        # Temp. for Fermi smearing

# Molecular dynamics and relaxations

MD.TypeOfRun            cg          # Type of dynamics:

# Output options

WriteCoorInitial     
WriteCoorStep       
WriteForces         
WriteKpoints            .false.
WriteEigenvalues        .false.
WriteKbands             .false.
WriteBands              .false.
WriteMullikenPop        1            # Write Mulliken Population Analysis
WriteCoorXmol           .false.
WriteMDCoorXmol         .false.
WriteMDhistory          .false.
WriteCoorXmol           .false.

# Options for saving/reading information

DM.UseSaveDM                         # Use DM Continuation files
MD.UseSaveXV            .false.      # Use stored positions and velocities
MD.UseSaveCG            .false.      # Use stored positions and velocities
SaveRho                              # Write valence pseudocharge at the mesh
SaveDeltaRho                         # Write RHOscf-RHOatm at the mesh
SaveElectrostaticPotential .false.   # Write the total elect. pot. at the mesh
SaveTotalPotential      .false.      # Write the total pot. at the mesh
WriteSiestaDim          .false.      # Write minimum dim to siesta.h and stop
WriteDenchar                         # Write information for DENCHAR

