 # Version information for this restart file 
 # current date 2020-11-05 13:33:12.363
 # current working dir /gporq2/scratch_0/usr/ftotti/Andrea/GRAFENE/GRAFENE-15x15-alone-smear
 # Program compiled at                               Fri Feb 8 15:10:36 CET 2019
 # Program compiled on                               cresco6x001.portici.enea.it
 # Program compiled for                           CRESCO6_ifort_intelmpi_libxsmm
 # Source code revision number                                         svn:18464
 &GLOBAL
   PRINT_LEVEL  MEDIUM
   PROJECT_NAME GrafeneAloneSmearCellOpt
   RUN_TYPE  CELL_OPT
   FLUSH_SHOULD_FLUSH  T
 &END GLOBAL
 &MOTION
   &GEO_OPT
     TYPE  MINIMIZATION
     OPTIMIZER  BFGS
     STEP_START_VAL  3
     &BFGS
       USE_RAT_FUN_OPT  T
     &END BFGS
   &END GEO_OPT
   &CELL_OPT
     OPTIMIZER  BFGS
     MAX_ITER  3000
     MAX_FORCE     1.6000000000000001E-03
     STEP_START_VAL  31
     TYPE  DIRECT_CELL_OPT
     EXTERNAL_PRESSURE     1.0000000000000000E+00    0.0000000000000000E+00    0.0000000000000000E+00    0.0000000000000000E+00 \
         1.0000000000000000E+00    0.0000000000000000E+00    0.0000000000000000E+00    0.0000000000000000E+00    1.0000000000000000E+00
     CONSTRAINT  Z
     PRESSURE_TOLERANCE     9.9999999999999978E-02
     &BFGS
       USE_RAT_FUN_OPT  T
     &END BFGS
   &END CELL_OPT
   &PRINT
     &TRAJECTORY  SILENT
       FILENAME 
     &END TRAJECTORY
     &RESTART  SILENT
       FILENAME 
       &EACH
         MD  1
       &END EACH
     &END RESTART
   &END PRINT
 &END MOTION
 &FORCE_EVAL
   METHOD  QS
   STRESS_TENSOR  ANALYTICAL
   &DFT
     BASIS_SET_FILE_NAME /afs/enea.it/por/user/ftotti/work/cp2k-data/BASIS_MOLOPT
     POTENTIAL_FILE_NAME /afs/enea.it/por/user/ftotti/work/cp2k-data/GTH_POTENTIALS
     WFN_RESTART_FILE_NAME 
     UKS  T
     MULTIPLICITY  1
     &SCF
       MAX_SCF  600
       EPS_SCF     1.0000000000000008E-06
       CHOLESKY  INVERSE
       SCF_GUESS  RESTART
       ADDED_MOS  500
       &OT  F
         MINIMIZER  CG
         SAFE_DIIS  T
         N_HISTORY_VEC  7
         LINESEARCH  2PNT
         PRECONDITIONER  FULL_KINETIC
         ENERGY_GAP     1.0000000000000000E-04
       &END OT
       &OUTER_SCF  F
         TYPE  NONE
         EPS_SCF     9.9999999999999995E-07
         MAX_SCF  3
       &END OUTER_SCF
       &SMEAR  T
         METHOD  FERMI_DIRAC
         ELECTRONIC_TEMPERATURE     5.0000000000000000E+02
       &END SMEAR
       &MIXING  T
         METHOD  BROYDEN_MIXING
         ALPHA     5.0000000000000000E-01
         BETA     1.5000000000000000E+00
         NBUFFER  8
       &END MIXING
       &PRINT
         &RESTART  SILENT
           FILENAME 
           &EACH
             MD  1
           &END EACH
         &END RESTART
       &END PRINT
     &END SCF
     &QS
       EXTRAPOLATION  ASPC
       EXTRAPOLATION_ORDER  1
     &END QS
     &MGRID
       NGRIDS  5
       CUTOFF     5.0000000000000000E+02
       REL_CUTOFF     5.5000000000000000E+01
     &END MGRID
     &XC
       DENSITY_CUTOFF     1.0000000000000000E-10
       GRADIENT_CUTOFF     1.0000000000000000E-10
       TAU_CUTOFF     1.0000000000000001E-09
       &XC_FUNCTIONAL  NO_SHORTCUT
         &TPSS  F
         &END TPSS
         &PBE  T
           PARAMETRIZATION  REVPBE
         &END PBE
       &END XC_FUNCTIONAL
       &VDW_POTENTIAL
         POTENTIAL_TYPE  NON_LOCAL
         &NON_LOCAL
           TYPE  RVV10
           KERNEL_FILE_NAME /afs/enea.it/por/user/ftotti/work/cp2k-data/rVV10_kernel_table.dat
         &END NON_LOCAL
       &END VDW_POTENTIAL
     &END XC
   &END DFT
   &SUBSYS
     &CELL
       A     3.9514898859369538E+01    0.0000000000000000E+00    0.0000000000000000E+00
       B    -1.9758152093919922E+01    3.4220484350688373E+01    0.0000000000000000E+00
       C     0.0000000000000000E+00    0.0000000000000000E+00    7.0000000000000000E+01
       PERIODIC  XYZ
       MULTIPLE_UNIT_CELL  1 1 1
     &END CELL
     &COORD
C    1.6330608340278749E+00    4.9389399797834042E-02    2.0425084385941116E+01
C    1.6330449896928405E+00    1.4752332302937730E+00    2.0425038092304497E+01
C    4.1026960714853393E+00    4.9427401919425754E-02    2.0425379798480769E+01
C    4.1026753305459378E+00    1.4752765930083107E+00    2.0425458650651130E+01
C    3.9821081177389256E-01    2.1881599666923357E+00    2.0424885385773493E+01
C    3.9824045328745061E-01    3.6140149911275943E+00    2.0424789728933678E+01
C    2.8678541165071363E+00    2.1881931849804346E+00    2.0425195812806059E+01
C    2.8678836499845004E+00    3.6140478978636819E+00    2.0425012803571395E+01
C   -8.3658571642248458E-01    4.3269396248940524E+00    2.0424919905625934E+01
C    4.1027019982611623E+00    4.3269586133196070E+00    2.0425064239659779E+01
C    1.6330503038048991E+00    4.3269666300925769E+00    2.0424903225494102E+01
C   -8.3662012050639267E-01    1.4751935449495825E+00    2.0424966505205536E+01
C    5.3374900348827401E+00    2.1882023420179455E+00    2.0425345649739828E+01
C    2.8678966206475565E+00   -6.6352176549102160E-01    2.0425178561613006E+01
C    3.9824415512740613E-01   -6.6358249020349036E-01    2.0424867729923122E+01
C    5.3375223975795940E+00   -6.6349576585994907E-01    2.0425291435677178E+01
C   -8.3656987371071134E-01    5.7528167976728568E+00    2.0424953704414246E+01
C    1.6330708232347475E+00    5.7528365929993734E+00    2.0424989450741492E+01
C   -2.0713748329983286E+00    6.4657075729590785E+00    2.0425012912731958E+01
C   -2.0713744146850592E+00    7.8915608673356843E+00    2.0425197570213978E+01
C    3.9824638538317086E-01    6.4657559394215518E+00    2.0425083264043074E+01
C    3.9825764907492534E-01    7.8916134945433365E+00    2.0425313409875855E+01
C   -3.3062055349005508E+00    8.6044576905266723E+00    2.0425109195698582E+01
C    1.6330629959616478E+00    8.6045367355746141E+00    2.0425323589061669E+01
C   -8.3656792428120286E-01    8.6045163296538583E+00    2.0425409593361955E+01
C   -3.3062103609712294E+00    5.7527540046445962E+00    2.0424954089162451E+01
C    2.8678774749278682E+00    6.4657471762361638E+00    2.0424909021001888E+01
C   -2.0714304435997479E+00    3.6139844899347358E+00    2.0424913720493766E+01
C   -3.3062572541732944E+00    1.0030294287470658E+01    2.0425072997444047E+01
C   -8.3662700221773345E-01    1.0030362229630038E+01    2.0425490252978637E+01
C   -4.5411190307771081E+00    1.0743207424853262E+01    2.0424916658025552E+01
C   -4.5412079201554247E+00    1.2169073063499164E+01    2.0424839994764689E+01
C   -2.0714760691868346E+00    1.0743271479592531E+01    2.0425239623793775E+01
C   -2.0715739485599620E+00    1.2169137962108014E+01    2.0425072259304653E+01
C   -5.7760730276664685E+00    1.2882000143610254E+01    2.0424951146113084E+01
C   -8.3679655970098998E-01    1.2882074049144897E+01    2.0425123964349503E+01
C   -3.3064455154403336E+00    1.2882062774683485E+01    2.0424954271131348E+01
C   -5.7759284079637121E+00    1.0030232687864357E+01    2.0424987496882537E+01
C    3.9816581020426267E-01    1.0743295015169707E+01    2.0425382099946578E+01
C   -4.5410345218853836E+00    7.8914949323950294E+00    2.0424878767978822E+01
C   -5.7761907851677590E+00    1.4307911351568695E+01    2.0424997327897909E+01
C   -3.3065571557859754E+00    1.4307961290943968E+01    2.0425056339824337E+01
C   -7.0110286181889236E+00    1.5020835354572920E+01    2.0425041109833248E+01
C   -7.0111515473054418E+00    1.6446734386359743E+01    2.0425225046354608E+01
C   -4.5414219263741620E+00    1.5020897837835097E+01    2.0425125944202104E+01
C   -4.5415293429886372E+00    1.6446793323879927E+01    2.0425356226841515E+01
C   -8.2460060794485450E+00    1.7159670652110364E+01    2.0425125059074119E+01
C   -3.3067484162431615E+00    1.7159740898581671E+01    2.0425367363972374E+01
C   -5.7763805743058958E+00    1.7159727407079924E+01    2.0425437719810162E+01
C   -8.2458187417603295E+00    1.4307843182931244E+01    2.0424982955059068E+01
C   -2.0717866266085401E+00    1.5020902672997154E+01    2.0424965884518365E+01
C   -7.0108768100755325E+00    1.2169017125241767E+01    2.0424934256441318E+01
C   -8.2461378692434373E+00    1.8585539799314166E+01    2.0425099683274308E+01
C   -5.7765092404550646E+00    1.8585602050440865E+01    2.0425526074435520E+01
C   -9.4810061565991575E+00    1.9298474550179506E+01    2.0424934934934154E+01
C   -9.4810934912142812E+00    2.0724341757123458E+01    2.0424858876304352E+01
C   -7.0113682891985691E+00    1.9298527974273028E+01    2.0425259760902225E+01
C   -7.0114635992361061E+00    2.0724397609120533E+01    2.0425099724012036E+01
C   -1.0715948098345587E+01    2.1437255242789764E+01    2.0424965657754750E+01
C   -5.7766718906177790E+00    2.1437319422122005E+01    2.0425141368308157E+01
C   -8.2463197820230807E+00    2.1437318439550697E+01    2.0424962739720549E+01
C   -1.0715800527932490E+01    1.8585487700763174E+01    2.0425011314751906E+01
C   -4.5417214158831216E+00    1.9298540060230003E+01    2.0425420709530126E+01
C   -9.4807992989055592E+00    1.6446676530748846E+01    2.0424903572441902E+01
C   -1.0715985552107934E+01    2.2863133959429501E+01    2.0424992317860074E+01
C   -8.2463527791143783E+00    2.2863190385304520E+01    2.0425053303034499E+01
C   -1.1950796595906768E+01    2.3576015167978799E+01    2.0425044778417572E+01
C   -1.1950783711400392E+01    2.5001872918092111E+01    2.0425221202826702E+01
C   -9.4811889942516547E+00    2.3576091961730739E+01    2.0425121240086963E+01
C   -9.4811794781519154E+00    2.5001945913450374E+01    2.0425343916512656E+01
C   -1.3185595246764578E+01    2.5714774437070972E+01    2.0425129253282137E+01
C   -8.2463786353568622E+00    2.5714875024061602E+01    2.0425357553185403E+01
C   -1.0715984039419203E+01    2.5714846776675714E+01    2.0425432830379268E+01
C   -1.3185620825485119E+01    2.2863051336097076E+01    2.0424993143612163E+01
C   -7.0115586954577722E+00    2.3576105961242138E+01    2.0424960450763738E+01
C   -1.1950765250856117E+01    2.0724286808588968E+01    2.0424954239499822E+01
C   -1.3185602346044535E+01    2.7140614602258577E+01    2.0425084950488301E+01
C   -1.0715985778809500E+01    2.7140693013790660E+01    2.0425513814193746E+01
C   -1.4420449161349786E+01    2.7853521317268413E+01    2.0424923099259441E+01
C   -1.4420453967859945E+01    2.9279377209259405E+01    2.0424817331882359E+01
C   -1.1950801817177323E+01    2.7853595644525043E+01    2.0425241846967534E+01
C   -1.1950793524529569E+01    2.9279453358329363E+01    2.0425059279721779E+01
C   -1.5655305593588560E+01    2.9992297788492412E+01    2.0424937993564903E+01
C   -1.0715991893735790E+01    2.9992398000118680E+01    2.0425097331438522E+01
C   -1.3185649624790225E+01    2.9992344993302698E+01    2.0424925832775727E+01
C   -1.5655282106154282E+01    2.7140559811292359E+01    2.0424996937701394E+01
C   -9.4811843525210300E+00    2.7853636101501344E+01    2.0425398156844192E+01
C   -1.4420426732470705E+01    2.5001805766662560E+01    2.0424905430746868E+01
C    6.5723130818296722E+00    4.9444049736019728E-02    2.0425301262944657E+01
C    6.5722990306367377E+00    1.4752898606199241E+00    2.0425264211415076E+01
C    9.0419553351576685E+00    4.9533962873020664E-02    2.0424920860478970E+01
C    9.0419520430165985E+00    1.4753632103782353E+00    2.0424979616071177E+01
C    5.3375165074567690E+00    3.6140561549968750E+00    2.0425125068246039E+01
C    7.8071131287383402E+00    2.1882656462568999E+00    2.0425043748015412E+01
C    7.8071373309942409E+00    3.6141133150307803E+00    2.0424905667610524E+01
C    9.0420015995629690E+00    4.3270547196303486E+00    2.0424922735940626E+01
C    6.5723375155188437E+00    4.3270127297723864E+00    2.0424985564834078E+01
C    1.0276809587441315E+01    2.1883090850656393E+00    2.0424904893242303E+01
C    7.8071659550418833E+00   -6.6345811446631775E-01    2.0425027024061841E+01
C    1.0276821214522169E+01   -6.6338143814579387E-01    2.0424896451625298E+01
C    4.1027175075671236E+00    5.7528283289797413E+00    2.0424863122849882E+01
C    6.5723503999889203E+00    5.7528785687472963E+00    2.0424952899253981E+01
C    2.8678929198644587E+00    7.8916075682291842E+00    2.0425039299193806E+01
C    5.3375385739880485E+00    6.4657794957610060E+00    2.0424808936987393E+01
C    5.3375291762516799E+00    7.8916409732115520E+00    2.0424891100343601E+01
C    6.5723614747574279E+00    8.6045955013216417E+00    2.0425120991861895E+01
C    4.1026903837263538E+00    8.6045816922198011E+00    2.0424934742901446E+01
C    7.8071928706478424E+00    6.4658224714583072E+00    2.0425014206720938E+01
C    1.6330051821991527E+00    1.0030383763656365E+01    2.0425292238607078E+01
C    4.1026441395396347E+00    1.0030421901787802E+01    2.0425001661516756E+01
C    3.9805721946813860E-01    1.2169161639178622E+01    2.0425174567858214E+01
C    2.8677933993396434E+00    1.0743355380397150E+01    2.0425073426412272E+01
C    2.8676777000700047E+00    1.2169219863404313E+01    2.0424947510711462E+01
C    4.1025004110495802E+00    1.2882173709951804E+01    2.0424970712480544E+01
C    1.6328394034736069E+00    1.2882136785830795E+01    2.0425037333999388E+01
C    5.3374645659554210E+00    1.0743380020134255E+01    2.0424936691641577E+01
C   -8.3690517480206017E-01    1.4307969398549954E+01    2.0424935470383488E+01
C    1.6327297555891767E+00    1.4308027790587527E+01    2.0425013084684451E+01
C   -2.0718859691214959E+00    1.6446792230203361E+01    2.0425096178842377E+01
C    3.9788097232587744E-01    1.5020949408165997E+01    2.0424872389342351E+01
C    3.9776253796838845E-01    1.6446835845788289E+01    2.0424948999082641E+01
C    1.6325741103170728E+00    1.7159801206027684E+01    2.0425170814530919E+01
C   -8.3711076322971367E-01    1.7159786871210301E+01    2.0424982685321211E+01
C    2.8675403547691767E+00    1.5020987979381831E+01    2.0425070239974882E+01
C   -3.3068706226641238E+00    1.8585610799702064E+01    2.0425338828671219E+01
C   -8.3722326666291880E-01    1.8585641236780923E+01    2.0425054006414150E+01
C   -4.5418276002425220E+00    2.0724408357418334E+01    2.0425210854337749E+01
C   -2.0720849200338458E+00    1.9298584432933584E+01    2.0425118322688821E+01
C   -2.0721923891531668E+00    2.0724446899399595E+01    2.0424984482106659E+01
C   -8.3735277339582947E-01    2.1437384787202554E+01    2.0424994664421259E+01
C   -3.3070226287363211E+00    2.1437358161752361E+01    2.0425062486930706E+01
C    3.9759182918277208E-01    1.9298598758573487E+01    2.0424979212079311E+01
C   -5.7767048112882708E+00    2.2863192262471351E+01    2.0424946385230992E+01
C   -3.3070557724930789E+00    2.2863226260572343E+01    2.0425026597684290E+01
C   -7.0115543668697979E+00    2.5001955852380398E+01    2.0425082208445421E+01
C   -4.5418817546815617E+00    2.3576129220927729E+01    2.0424874955617913E+01
C   -4.5419017684793328E+00    2.5001980163878709E+01    2.0424947635258142E+01
C   -3.3070557145291160E+00    2.5714911168220382E+01    2.0425160851218969E+01
C   -5.7767466128621159E+00    2.5714907943228777E+01    2.0424969524964869E+01
C   -2.0722123010144942E+00    2.3576156054356471E+01    2.0425070270426851E+01
C   -8.2463891827110949E+00    2.7140713709968509E+01    2.0425319334839759E+01
C   -5.7767660880811302E+00    2.7140729388094542E+01    2.0425031317739460E+01
C   -9.4811745340625233E+00    2.9279495056254170E+01    2.0425173133258134E+01
C   -7.0115838290017942E+00    2.7853667581452349E+01    2.0425093987368250E+01
C   -7.0115747680157199E+00    2.9279518227453821E+01    2.0424949303773630E+01
C   -5.7767187827906277E+00    2.9992438027759004E+01    2.0424958573208006E+01
C   -8.2463644654776171E+00    2.9992450791732711E+01    2.0425022391019588E+01
C   -4.5419205640424485E+00    2.7853658666595752E+01    2.0424951911438569E+01
C    1.1511656073058198E+01    4.9555850822081422E-02    2.0425114792235803E+01
C    1.1511667791404875E+01    1.4753845464765640E+00    2.0425061859023888E+01
C    1.3981360883815290E+01    4.9480263990317290E-02    2.0425396855662584E+01
C    1.3981393643421310E+01    1.4753137918879107E+00    2.0425464366428102E+01
C    1.0276861366070552E+01    3.6141465805263278E+00    2.0424809802286326E+01
C    1.2746547482115840E+01    2.1882606545887073E+00    2.0425204686284346E+01
C    1.2746608243003454E+01    3.6140992616090748E+00    2.0425022952783067E+01
C    1.3981496249482243E+01    4.3269365769684249E+00    2.0425052349606215E+01
C    1.1511735277566094E+01    4.3270303887638617E+00    2.0424901592793741E+01
C    1.5216289253245717E+01    2.1881598435337546E+00    2.0425347578003407E+01
C    1.2746499706275269E+01   -6.6338596273606343E-01    2.0425204873073262E+01
C    1.5216216419270506E+01   -6.6346217098232496E-01    2.0425300956770641E+01
C    9.0420150867516522E+00    5.7529208349243017E+00    2.0424960405749861E+01
C    1.1511757924245964E+01    5.7528847259484674E+00    2.0424991861420470E+01
C    7.8071982816805328E+00    7.8916743693712705E+00    2.0425196425810277E+01
C    1.0276886146611622E+01    6.4658005981532707E+00    2.0425072924073177E+01
C    1.0276912879433699E+01    7.8916462015913202E+00    2.0425294462913776E+01
C    1.1511793287481320E+01    8.6045059530780978E+00    2.0425307284803910E+01
C    9.0420598115370954E+00    8.6045686325594257E+00    2.0425393301752411E+01
C    1.2746631519112146E+01    6.4657319035267253E+00    2.0424897979188689E+01
C    6.5723320902616802E+00    1.0030433976214798E+01    2.0425070858541705E+01
C    9.0420515819192815E+00    1.0030404542089714E+01    2.0425464376092592E+01
C    5.3373879454119368E+00    1.2169237402896544E+01    2.0424846545288229E+01
C    7.8071775950605762E+00    1.0743336908799227E+01    2.0425225445378054E+01
C    7.8071223076877203E+00    1.2169189431727197E+01    2.0425052021788719E+01
C    9.0419796135786985E+00    1.2882044836546548E+01    2.0425090226409900E+01
C    6.5722212907609787E+00    1.2882137388847832E+01    2.0424949969043464E+01
C    1.0276924319652400E+01    1.0743264571035779E+01    2.0425349840957228E+01
C    4.1023968334995713E+00    1.4308062278491397E+01    2.0425010591851390E+01
C    6.5721399886254668E+00    1.4308011223459379E+01    2.0425042363408849E+01
C    2.8674393965771157E+00    1.6446861232049411E+01    2.0425244642839129E+01
C    5.3372369403428488E+00    1.5020951078396893E+01    2.0425125993922386E+01
C    5.3371569099684111E+00    1.6446815729086161E+01    2.0425342417191828E+01
C    6.5720086411178027E+00    1.7159684299120414E+01    2.0425356699834776E+01
C    4.1022776439571240E+00    1.7159758812091898E+01    2.0425445425362810E+01
C    7.8069861067523982E+00    1.5020869392890463E+01    2.0424948685893604E+01
C    1.6324713589603961E+00    1.8585650223762322E+01    2.0425122067211376E+01
C    4.1021872215333470E+00    1.8585606169176650E+01    2.0425514702260923E+01
C    3.9752022242571622E-01    2.0724452211915558E+01    2.0424890124903857E+01
C    2.8673063956628324E+00    1.9298549251597823E+01    2.0425274755506940E+01
C    2.8672434582394679E+00    2.0724399994505479E+01    2.0425098593981353E+01
C    4.1020998981357204E+00    2.1437255600046058E+01    2.0425128804500293E+01
C    1.6323607088919392E+00    2.1437343311090409E+01    2.0424977022912032E+01
C    5.3370397528296243E+00    1.9298471562576083E+01    2.0425405410950599E+01
C   -8.3737839102589351E-01    2.2863254240189409E+01    2.0425022744426656E+01
C    1.6323561975988303E+00    2.2863202744364287E+01    2.0425061043535202E+01
C   -2.0722149078749514E+00    2.5001999756883997E+01    2.0425247731035942E+01
C    3.9748482389070605E-01    2.3576127079947348E+01    2.0425127251760767E+01
C    3.9750480808072036E-01    2.5001967490987550E+01    2.0425345389282182E+01
C    1.6323833020741703E+00    2.5714823873326925E+01    2.0425355011173952E+01
C   -8.3734800245315488E-01    2.5714882351200071E+01    2.0425441506592524E+01
C    2.8672197004052618E+00    2.3576054029695044E+01    2.0424956848117940E+01
C   -3.3070698600235562E+00    2.7140731528785675E+01    2.0425110137625953E+01
C   -8.3734678929626127E-01    2.7140706847160565E+01    2.0425509910059223E+01
C   -4.5418760784466885E+00    2.9279497253705376E+01    2.0424852208355592E+01
C   -2.0722036415042311E+00    2.7853620905077271E+01    2.0425254969172549E+01
C   -2.0721470474174501E+00    2.9279457440991607E+01    2.0425065406492259E+01
C   -8.3726554620224125E-01    2.9992317845956325E+01    2.0425094353579617E+01
C   -3.3070137225230556E+00    2.9992383321091808E+01    2.0424938513152131E+01
C    3.9753864472322148E-01    2.7853567830594471E+01    2.0425393692966662E+01
C    1.6451088971787645E+01    4.9394767081768431E-02    2.0425313908326910E+01
C    1.6451134868310529E+01    1.4752265205622452E+00    2.0425268141252634E+01
C    1.8920853010245988E+01    4.9358567483945202E-02    2.0424921475213878E+01
C    1.8920895276490707E+01    1.4751761701009714E+00    2.0424976238522479E+01
C    1.5216347974449082E+01    3.6140022176919846E+00    2.0425131850719129E+01
C    1.7686033669261743E+01    2.1881120788605553E+00    2.0425042288437744E+01
C    1.7686081365443545E+01    3.6139490047202543E+00    2.0424910331079012E+01
C    1.8920994083763471E+01    4.3268213330256113E+00    2.0424895262147796E+01
C    1.6451245965165366E+01    4.3268696405936824E+00    2.0424969191497002E+01
C    2.0155804125986151E+01    2.1880590750057354E+00    2.0424883533861866E+01
C    1.7685973247717008E+01   -6.6353604036909419E-01    2.0425025898163096E+01
C    2.0155743854730087E+01   -6.6358337091871067E-01    2.0424880775543141E+01
C    1.3981515584789433E+01    5.7527936435057452E+00    2.0424855022491634E+01
C    1.6451257738225177E+01    5.7527215450890816E+00    2.0424944046594913E+01
C    1.2746670177960880E+01    7.8915744458779251E+00    2.0425016778091642E+01
C    1.5216414139069329E+01    6.4656514586382148E+00    2.0424780959488857E+01
C    1.5216430498414281E+01    7.8914925705908745E+00    2.0424865978682121E+01
C    1.6451326804849327E+01    8.6043621530003058E+00    2.0425074530364313E+01
C    1.3981558472819811E+01    8.6044505367384776E+00    2.0424912634243750E+01
C    1.7686153935280519E+01    6.4655891137384227E+00    2.0424975946361005E+01
C    1.1511796987581365E+01    1.0030335315384159E+01    2.0425266507716440E+01
C    1.3981561352150006E+01    1.0030264658173113E+01    2.0424977019953751E+01
C    1.0276870987187982E+01    1.2169112437722076E+01    2.0425151315416819E+01
C    1.2746680385526108E+01    1.0743210010210749E+01    2.0425043926833791E+01
C    1.2746617190237540E+01    1.2169051004532578E+01    2.0424926556978892E+01
C    1.3981504047389347E+01    1.2881923553503354E+01    2.0424920039220677E+01
C    1.1511747185468126E+01    1.2881982947498571E+01    2.0424994300416550E+01
C    1.5216449956594769E+01    1.0743135624492965E+01    2.0424889670064672E+01
C    9.0419076697643845E+00    1.4307918776619223E+01    2.0424903130357674E+01
C    1.1511667898267200E+01    1.4307851332475956E+01    2.0424981007448370E+01
C    7.8069141641321576E+00    1.6446732124220279E+01    2.0425065247435256E+01
C    1.0276783589466850E+01    1.5020792455829945E+01    2.0424827160298499E+01
C    1.0276686637961850E+01    1.6446657042791212E+01    2.0424907563658000E+01
C    1.1511558116244149E+01    1.7159548434195170E+01    2.0425113585798840E+01
C    9.0417754696173205E+00    1.7159625317787569E+01    2.0424955783071308E+01
C    1.2746538867055836E+01    1.5020734538450531E+01    2.0425011762648815E+01
C    6.5719215824113419E+00    1.8585529283883197E+01    2.0425319075174599E+01
C    9.0416838566640632E+00    1.8585459037194440E+01    2.0425023472420545E+01
C    5.3369706017332215E+00    2.0724321615809263E+01    2.0425198145257138E+01
C    7.8067864273000405E+00    1.9298414906180032E+01    2.0425092466258970E+01
C    7.8067094052308033E+00    2.0724262059843888E+01    2.0424965938881584E+01
C    9.0416097701170273E+00    2.1437135872001377E+01    2.0424952670334569E+01
C    6.5718496173930809E+00    2.1437191512973634E+01    2.0425030613710234E+01
C    1.0276560195026704E+01    1.9298346482147288E+01    2.0424934649051561E+01
C    4.1021053088001578E+00    2.2863117846127889E+01    2.0424929130321086E+01
C    6.5718505667419462E+00    2.2863049238259173E+01    2.0425002084951185E+01
C    2.8672563933346198E+00    2.5001895926769876E+01    2.0425069281870162E+01
C    5.3370016413452124E+00    2.3575982824803329E+01    2.0424845585246175E+01
C    5.3370178672059003E+00    2.5001828233850748E+01    2.0424918640374710E+01
C    6.5719208818108967E+00    2.5714700213502017E+01    2.0425121320200986E+01
C    4.1021433012305213E+00    2.5714779647775682E+01    2.0424956172150488E+01
C    7.8067515596237360E+00    2.3575917493935506E+01    2.0425024366278677E+01
C    1.6323917695463281E+00    2.7140648408982280E+01    2.0425312658983653E+01
C    4.1021520969683056E+00    2.7140594071118034E+01    2.0425016608734104E+01
C    3.9759259191152529E-01    2.9279406697836858E+01    2.0425169495774597E+01
C    2.8672870018760559E+00    2.7853530741354923E+01    2.0425080366517598E+01
C    2.8673350821828802E+00    2.9279367258313176E+01    2.0424944994192362E+01
C    4.1022551531550171E+00    2.9992243443230940E+01    2.0424926296693059E+01
C    1.6324961922891794E+00    2.9992282538506235E+01    2.0425004245917922E+01
C    5.3370602476803315E+00    2.7853470345699762E+01    2.0424921733172994E+01
C    2.1390636502538872E+01    4.9301787994644908E-02    2.0425087495060644E+01
C    2.1390668232596187E+01    1.4751240863470274E+00    2.0425032194352557E+01
C    2.3860354262278012E+01    4.9269446075184853E-02    2.0425362466420818E+01
C    2.3860376793221956E+01    1.4751045642424334E+00    2.0425430391145124E+01
C    2.0155860318053360E+01    3.6138923045486906E+00    2.0424782447189706E+01
C    2.2625538568599065E+01    2.1880175752938884E+00    2.0425178227292299E+01
C    2.2625584777415536E+01    3.6138587883146980E+00    2.0424991308376782E+01
C    2.3860407834925880E+01    4.3267701704248323E+00    2.0425025603352861E+01
C    2.1390724251142554E+01    4.3267743734141639E+00    2.0424868894462509E+01
C    2.5095209369283062E+01    2.1880218558591249E+00    2.0425325939295881E+01
C    2.2625498422433818E+01   -6.6362214471809278E-01    2.0425168397454780E+01
C    2.5095200122932191E+01   -6.6364827670734061E-01    2.0425264907021610E+01
C    1.8920990549753945E+01    5.7526783866144475E+00    2.0424928973088257E+01
C    2.1390713094888518E+01    5.7526312615301283E+00    2.0424956093696579E+01
C    1.7686169506177336E+01    7.8914268428522680E+00    2.0425157237355386E+01
C    2.0155857112907292E+01    6.4655457765860715E+00    2.0425032622462286E+01
C    2.0155867628030943E+01    7.8913919663586789E+00    2.0425252112969432E+01
C    2.1390687509797228E+01    8.6043133305224160E+00    2.0425265555916436E+01
C    1.8921032103223752E+01    8.6043068119693054E+00    2.0425347055020612E+01
C    2.2625525518351363E+01    6.4655425736562053E+00    2.0424858542463546E+01
C    1.6451324392319705E+01    1.0030182833712683E+01    2.0425034228828402E+01
C    1.8921020956890260E+01    1.0030144207363737E+01    2.0425425260959990E+01
C    1.5216396727791851E+01    1.2168976761149636E+01    2.0424804766123160E+01
C    1.7686170012166759E+01    1.0743073148430822E+01    2.0425175475892594E+01
C    1.7686105989620643E+01    1.2168929298121526E+01    2.0425015185905785E+01
C    1.8920892657990223E+01    1.2881859935845906E+01    2.0425044013558026E+01
C    1.6451225489353803E+01    1.2881869488571343E+01    2.0424896620520816E+01
C    2.0155828623167245E+01    1.0743072891754448E+01    2.0425309527383980E+01
C    1.3981408014621410E+01    1.4307800302633046E+01    2.0424962404366948E+01
C    1.6451125740895048E+01    1.4307749751839982E+01    2.0424996798964436E+01
C    1.2746440657546994E+01    1.6446599122249509E+01    2.0425191498491699E+01
C    1.5216242546367729E+01    1.5020687868174374E+01    2.0425069777650585E+01
C    1.5216143465193390E+01    1.6446561817397267E+01    2.0425291415312181E+01
C    1.6450932137817546E+01    1.7159503983327898E+01    2.0425309750405592E+01
C    1.3981276587902002E+01    1.7159499379683073E+01    2.0425384924309373E+01
C    1.7685903236698060E+01    1.5020684035127895E+01    2.0424899828200111E+01
C    1.1511458932483974E+01    1.8585390685759350E+01    2.0425074181451411E+01
C    1.3981168386894549E+01    1.8585358536412308E+01    2.0425471008014995E+01
C    1.0276499355912659E+01    2.0724195990115092E+01    2.0424842226726323E+01
C    1.2746295266148326E+01    1.9298294802163458E+01    2.0425222959768504E+01
C    1.2746219818901267E+01    2.0724158259184367E+01    2.0425056899725281E+01
C    1.3981019447136056E+01    2.1437087533338875E+01    2.0425092327941059E+01
C    1.1511344001132311E+01    2.1437093105971449E+01    2.0424936164455048E+01
C    1.5215962562205977E+01    1.9298298157512082E+01    2.0425363842205954E+01
C    9.0415991385739307E+00    2.2863004448905389E+01    2.0424975009829623E+01
C    1.1511328105071589E+01    2.2862965508307564E+01    2.0425014318770451E+01
C    7.8067694849634215E+00    2.5001761870925673E+01    2.0425201093527836E+01
C    1.0276468456878776E+01    2.3575883697628814E+01    2.0425085332863446E+01
C    1.0276493308890171E+01    2.5001735053854659E+01    2.0425301091730745E+01
C    1.1511329858811397E+01    2.5714652765780844E+01    2.0425320713421272E+01
C    9.0416473650832145E+00    2.5714638686863790E+01    2.0425397036931354E+01
C    1.2746140588547400E+01    2.3575886529728574E+01    2.0424923913082896E+01
C    6.5719258610828302E+00    2.7140521531450062E+01    2.0425073344741730E+01
C    9.0416531916193374E+00    2.7140470983138169E+01    2.0425476752830516E+01
C    5.3371194415639813E+00    2.9279306422521600E+01    2.0424820204795523E+01
C    7.8068052202262708E+00    2.7853393565377715E+01    2.0425220754685714E+01
C    7.8068445276113829E+00    2.9279237288673432E+01    2.0425034996515048E+01