# 
# This is the geometry file that corresponds to the current relaxation step.
# If you do not want this file to be written, set the "write_restart_geometry" flag to .false.
#  aims_uuid : EFCC3CA4-ED07-4872-AEFE-53A6771E2DD3                                
# 
  set_vacuum_level        54.478439
lattice_vector      9.14729404      0.00000000      0.00000000
lattice_vector      0.00000000     11.62187862      0.00000000
lattice_vector      0.00000000      0.00000000     71.60693882
atom       1.52090199      4.36753034     36.41260285 Ga
  constrain_relaxation x
  constrain_relaxation y
atom      -0.00175722     10.89741001     10.10791212 Ga
atom      -0.00175729      5.08642424     10.10800091 Ga
atom       3.04734104     10.89741071     10.10791123 Ga
atom       3.04734125      5.08642497     10.10800014 Ga
atom       6.09643806     10.89741034     10.10791119 Ga
atom       6.09643805      5.08642489     10.10799933 Ga
atom       1.52273913      3.64567637      1.93902962 Ga
atom       1.52273923      9.45661484      1.93901718 Ga
atom       4.57183763      3.64567637      1.93903407 Ga
atom       4.57183767      9.45661479      1.93902161 Ga
atom       7.62093591      3.64567643      1.93903001 Ga
atom       7.62093578      9.45661486      1.93901741 Ga
atom       1.52281916      2.08882800     10.89312807 Ga
atom       1.52281961      7.89979316     10.89307130 Ga
atom       4.57191680      2.08882588     10.89313117 Ga
atom       4.57191799      7.89979422     10.89307199 Ga
atom       7.62101587      2.08882578     10.89313024 Ga
atom       7.62101589      7.89979395     10.89307112 Ga
atom      -0.00181209      0.73414367      1.33097295 Ga
atom      -0.00181211      6.54507900      1.33097340 Ga
atom       3.04728546      0.73414357      1.33097430 Ga
atom       3.04728545      6.54507886      1.33097477 Ga
atom       6.09638451      0.73414365      1.33097452 Ga
atom       6.09638450      6.54507885      1.33097493 Ga
atom       1.52274171      0.75254630      4.25119801 Ga
atom       1.52274170      6.56346967      4.25120082 Ga
atom       4.57184044      0.75254559      4.25119684 Ga
atom       4.57184049      6.56346902      4.25119977 Ga
atom       7.62093945      0.75254639      4.25119807 Ga
atom       7.62093940      6.56346981      4.25120093 Ga
atom      -0.00175214      2.16818439      7.92669820 Ga
atom      -0.00175153      7.97913157      7.92666597 Ga
atom       3.04734605      2.16818432      7.92669659 Ga
atom       3.04734602      7.97913140      7.92666450 Ga
atom       6.09644415      2.16818436      7.92669851 Ga
atom       6.09644446      7.97913128      7.92666512 Ga
atom      -0.00178590      3.56658440      4.95256284 Ga
atom      -0.00178598      9.37751202      4.95254128 Ga
atom       3.04731188      3.56658412      4.95256174 Ga
atom       3.04731194      9.37751174      4.95254067 Ga
atom       6.09641001      3.56658371      4.95256237 Ga
atom       6.09641002      9.37751174      4.95254128 Ga
atom       1.52276143     10.96105561      7.15055223 Ga
atom       1.52276146      5.15009937      7.15060810 Ga
atom       4.57185954     10.96105598      7.15055173 Ga
atom       4.57185944      5.15009955      7.15060721 Ga
atom       7.62095781     10.96105577      7.15055274 Ga
atom       7.62095788      5.15009939      7.15060821 Ga
atom       9.14584641      7.97926197     21.93455932 Ga
atom       9.14593156      2.16723899     21.93734767 Ga
atom       3.04777068      7.97925686     21.93456472 Ga
atom       3.04771253      2.16723508     21.93733861 Ga
atom       6.09680801      7.97900878     21.93506221 Ga
atom       6.09682630      2.16701955     21.93711326 Ga
atom       1.52289427      0.70985749     13.85154488 Ga
atom       1.52289432      6.52078903     13.85120898 Ga
atom       4.57199639      0.70985333     13.85155171 Ga
atom       4.57199468      6.52078767     13.85120750 Ga
atom       7.62108527      0.70985295     13.85155314 Ga
atom       7.62108760      6.52078712     13.85121027 Ga
atom       1.52331561     10.79212388     22.73002842 Ga
atom       1.52329287      4.98251604     22.72858062 Ga
atom       4.57231505     10.79179346     22.73023490 Ga
atom       4.57253809      4.98205794     22.72896212 Ga
atom       7.62161947     10.79180583     22.73023478 Ga
atom       7.62134509      4.98207368     22.72895667 Ga
atom      -0.00171715      9.51422866     13.05726523 Ga
atom      -0.00171513      3.70314012     13.05740736 Ga
atom       3.04738440      9.51423124     13.05726398 Ga
atom       3.04738151      3.70314252     13.05740624 Ga
atom       6.09648044      9.51423204     13.05726490 Ga
atom       6.09648002      3.70314190     13.05740133 Ga
atom       1.52289431      9.43716952     16.01840398 Ga
atom       1.52289274      3.62580186     16.01868519 Ga
atom       4.57199821      9.43715388     16.01842289 Ga
atom       4.57199479      3.62578560     16.01866870 Ga
atom       7.62108671      9.43715230     16.01842220 Ga
atom       7.62108679      3.62578460     16.01866770 Ga
atom       9.14586720     10.87331129     19.76953017 Ga
atom       9.14584087      5.06258705     19.76871377 Ga
atom       3.04772596     10.87331031     19.76953432 Ga
atom       3.04775638      5.06258730     19.76871540 Ga
atom       6.09679872     10.87325064     19.76966390 Ga
atom       6.09679888      5.06259940     19.76886299 Ga
atom      -0.00157973      0.62859353     16.81301883 Ga
atom      -0.00159640      6.43929576     16.81246375 Ga
atom       3.04751489      0.62859340     16.81302033 Ga
atom       3.04752814      6.43929586     16.81246374 Ga
atom       6.09661506      0.62856671     16.81304732 Ga
atom       6.09661301      6.43928181     16.81247759 Ga
atom       1.52304704      8.05691567     18.97282770 Ga
atom       1.52305600      2.24548303     18.97440553 Ga
atom       4.57218821      8.05692308     18.97288521 Ga
atom       4.57215679      2.24547567     18.97437473 Ga
atom       7.62119917      8.05692198     18.97288253 Ga
atom       7.62125391      2.24547717     18.97437038 Ga
atom       9.14766350      5.07501313     33.79853783 Ga
atom       9.13979487     10.83728084     33.87143231 Ga
atom       3.04675951      5.07476427     33.79987403 Ga
atom       3.05498533     10.83733116     33.87134067 Ga
atom       6.09699041      5.03201431     33.88449425 Ga
atom       6.09740069     10.82158998     33.87112520 Ga
atom       1.52349712      9.41459202     25.68661257 Ga
atom       1.52350311      3.60286496     25.67578122 Ga
atom       4.57290462      9.41339013     25.68635284 Ga
atom       4.57390615      3.60254493     25.67778586 Ga
atom       7.62139276      9.41340900     25.68636319 Ga
atom       7.62039730      3.60256638     25.67774907 Ga
atom       1.52380063      7.96776986     34.48618609 Ga
atom       1.52363634      2.06807401     34.41357441 Ga
atom       4.57676146      7.94521894     34.49970153 Ga
atom       4.59999617      2.10617082     34.50386298 Ga
atom       7.61826347      7.94505650     34.49980616 Ga
atom       7.59444525      2.10619819     34.50371910 Ga
atom       9.14545181      6.59865018     24.89129877 Ga
atom       9.14609214      0.78396653     24.89451426 Ga
atom       3.04854781      6.59862632     24.89131737 Ga
atom       3.04810410      0.78394565     24.89451391 Ga
atom       6.09700400      6.59860866     24.89216608 Ga
atom       6.09711846      0.78398789     24.89392325 Ga
atom       1.52345116      6.52862306     27.85297312 Ga
atom       1.52354445      0.70796056     27.86431624 Ga
atom       4.57354687      6.52308719     27.86061131 Ga
atom       4.57290683      0.70479190     27.86216207 Ga
atom       7.62063147      6.52306223     27.86053507 Ga
atom       7.62146261      0.70477444     27.86215391 Ga
atom       9.14448718      7.93981004     31.55535047 Ga
atom       9.13452103      2.13350747     31.53006267 Ga
atom       3.05003706      7.93976142     31.55550504 Ga
atom       3.05989425      2.13361712     31.53027042 Ga
atom       6.09730256      7.93495668     31.56879955 Ga
atom       6.09718076      2.13792152     31.58248314 Ga
atom       9.14595899      9.34639108     28.64639125 Ga
atom       9.14332674      3.53216665     28.62979639 Ga
atom       3.04835307      9.34641828     28.64638674 Ga
atom       3.05101545      3.53226253     28.62983463 Ga
atom       6.09714520      9.34286161     28.64730663 Ga
atom       6.09718312      3.52690803     28.63761032 Ga
atom       1.52368697      5.12988882     30.80174882 Ga
atom       1.52361977     10.93076037     30.84713098 Ga
atom       4.57747041      5.12039611     30.82521793 Ga
atom       4.57636669     10.93031429     30.84699012 Ga
atom       7.61684906      5.12046753     30.82519411 Ga
atom       7.61810471     10.93028330     30.84706489 Ga
atom      -0.00174892      0.87946208     11.00372204 O
atom      -0.00174927      6.69040340     11.00376900 O
atom       3.04734676      0.87946274     11.00372254 O
atom       3.04734801      6.69040422     11.00376948 O
atom       6.09644554      0.87946239     11.00372192 O
atom       6.09644591      6.69040341     11.00376882 O
atom       1.52273510      1.98874880      1.07062959 O
atom       1.52273511      7.79968505      1.07062398 O
atom       4.57183369      1.98874817      1.07063308 O
atom       4.57183371      7.79968439      1.07062740 O
atom       7.62093201      1.98874891      1.07062993 O
atom       7.62093198      7.79968513      1.07062419 O
atom      -0.00172380      9.28965724     11.06315186 O
atom      -0.00172437      3.47866155     11.06322535 O
atom       3.04737242      9.28965859     11.06315212 O
atom       3.04737204      3.47866260     11.06322529 O
atom       6.09647192      9.28965783     11.06315161 O
atom       6.09647119      3.47866133     11.06322288 O
atom       1.52273642      5.29464919      1.05566837 O
atom       1.52273648     11.10559141      1.05566583 O
atom       4.57183515      5.29464990      1.05567205 O
atom       4.57183521     11.10559212      1.05566956 O
atom       7.62093365      5.29464916      1.05566864 O
atom       7.62093366     11.10559142      1.05566606 O
atom      -0.00180915      3.65431432      3.00247584 O
atom      -0.00180923      9.46525062      3.00246345 O
atom       3.04728708      3.65431393      3.00247673 O
atom       3.04728715      9.46525022      3.00246471 O
atom       6.09638845      3.65431392      3.00247727 O
atom       6.09638845      9.46525020      3.00246530 O
atom       1.52279059     10.85643133      9.07783607 O
atom       1.52279065      5.04549262      9.07790744 O
atom       4.57188826     10.85643135      9.07783459 O
atom       4.57188810      5.04549262      9.07790543 O
atom       7.62098674     10.85643119      9.07783616 O
atom       7.62098696      5.04549239      9.07790705 O
atom       1.52275113      2.36694065      5.10826565 O
atom       1.52275109      8.17787217      5.10825586 O
atom       4.57184983      2.36694080      5.10826313 O
atom       4.57184994      8.17787230      5.10825368 O
atom       7.62094904      2.36694065      5.10826589 O
atom       7.62094894      8.17787214      5.10825635 O
atom      -0.00176814      0.56152161      7.03246977 O
atom      -0.00176804      6.37244605      7.03249648 O
atom       3.04732910      0.56152148      7.03246809 O
atom       3.04732911      6.37244591      7.03249473 O
atom       6.09642811      0.56152166      7.03246953 O
atom       6.09642810      6.37244578      7.03249564 O
atom       1.52275796     10.74493056      5.14866881 O
atom       1.52275801      4.93399170      5.14869278 O
atom       4.57185708     10.74493016      5.14866938 O
atom       4.57185706      4.93399122      5.14869316 O
atom       7.62095608     10.74493077      5.14866958 O
atom       7.62095611      4.93399190      5.14869349 O
atom      -0.00177565      3.78021471      6.98222401 O
atom      -0.00177566      9.59115025      6.98219345 O
atom       3.04732206      3.78021452      6.98222146 O
atom       3.04732199      9.59115008      6.98219125 O
atom       6.09641994      3.78021403      6.98222205 O
atom       6.09641997      9.59114997      6.98219197 O
atom       1.52279587      2.20811548      8.96512850 O
atom       1.52279617      8.01905496      8.96510883 O
atom       4.57189286      2.20811525      8.96512940 O
atom       4.57189350      8.01905516      8.96510850 O
atom       7.62099199      2.20811499      8.96513004 O
atom       7.62099204      8.01905469      8.96510918 O
atom      -0.00180621      0.71534565      3.23118756 O
atom      -0.00180627      6.52627822      3.23118848 O
atom       3.04729070      0.71534483      3.23118862 O
atom       3.04729074      6.52627745      3.23118957 O
atom       6.09639092      0.71534477      3.23118891 O
atom       6.09639091      6.52627745      3.23118979 O
atom       9.14620456      9.58055572     22.83967297 O
atom       9.14610818      3.77010768     22.84111404 O
atom       3.04759654      9.58054800     22.83967455 O
atom       3.04767810      3.77009096     22.84111923 O
atom       6.09691101      9.58064372     22.83962911 O
atom       6.09690530      3.76968202     22.84109224 O
atom       1.52286242     10.72514095     12.96269060 O
atom       1.52286212      4.91405519     12.96266956 O
atom       4.57195975     10.72514506     12.96267952 O
atom       4.57195861      4.91405565     12.96266256 O
atom       7.62105972     10.72514379     12.96268234 O
atom       7.62106016      4.91405458     12.96266584 O
atom       9.14611462      6.37379610     22.89968282 O
atom       9.14606995      0.56092448     22.90135148 O
atom       3.04778653      6.37378459     22.89970155 O
atom       3.04790715      0.56092435     22.90136156 O
atom       6.09694882      6.37340986     22.89973166 O
atom       6.09699201      0.56079665     22.90129960 O
atom       1.52284905      2.31560019     12.89602067 O
atom       1.52284955      8.12662734     12.89591408 O
atom       4.57194678      2.31559782     12.89602260 O
atom       4.57194827      8.12662754     12.89591204 O
atom       7.62104527      2.31559677     12.89602322 O
atom       7.62104542      8.12662615     12.89591338 O
atom      -0.00165196      0.75215610     14.88753550 O
atom      -0.00165368      6.56300811     14.88719302 O
atom       3.04744301      0.75215683     14.88753532 O
atom       3.04744486      6.56300873     14.88719169 O
atom       6.09654146      0.75214518     14.88754299 O
atom       6.09654109      6.56300190     14.88719163 O
atom       1.52316420      7.93400633     20.90596520 O
atom       1.52317451      2.12325334     20.90812820 O
atom       4.57237645      7.93408320     20.90607471 O
atom       4.57221799      2.12316558     20.90808649 O
atom       7.62123923      7.93407851     20.90607198 O
atom       7.62143614      2.12315928     20.90808612 O
atom       1.52293891     11.03986804     16.91979330 O
atom       1.52293847      5.22876086     16.91968986 O
atom       4.57202773     11.03987160     16.91978252 O
atom       4.57203710      5.22873803     16.91967734 O
atom       7.62114626     11.03987167     16.91977913 O
atom       7.62113421      5.22873880     16.91967285 O
atom       9.14579360      9.26635211     18.88287492 O
atom       9.14582288      3.45495879     18.88365156 O
atom       3.04764914      9.26635272     18.88288189 O
atom       3.04764686      3.45495794     18.88366221 O
atom       6.09672081      9.26640318     18.88278971 O
atom       6.09673605      3.45496539     18.88374768 O
atom       1.52296709      7.83153074     16.98130897 O
atom       1.52296995      2.02055200     16.98210537 O
atom       4.57207853      7.83151884     16.98131126 O
atom       4.57209057      2.02054353     16.98209940 O
atom       7.62114766      7.83151660     16.98130847 O
atom       7.62114155      2.02054174     16.98209446 O
atom      -0.00150623      0.85662556     18.81469387 O
atom      -0.00154305      6.66756832     18.81384966 O
atom       3.04760453      0.85662386     18.81469882 O
atom       3.04764448      6.66756717     18.81385212 O
atom       6.09669742      0.85658201     18.81476847 O
atom       6.09669690      6.66753360     18.81387932 O
atom       1.52316420     10.91522104     20.80600133 O
atom       1.52316199      5.10445148     20.80541179 O
atom       4.57223284     10.91513953     20.80615020 O
atom       4.57223782      5.10433009     20.80564167 O
atom       7.62139228     10.91513182     20.80613865 O
atom       7.62137758      5.10432679     20.80562706 O
atom      -0.00166404      9.39308191     14.98884262 O
atom      -0.00165695      3.58194165     14.98903832 O
atom       3.04744348      9.39308393     14.98884304 O
atom       3.04743409      3.58194350     14.98903881 O
atom       6.09653650      9.39309021     14.98884054 O
atom       6.09653497      3.58194056     14.98902603 O
atom       9.16433575      6.67457799     34.77563275 O
atom       9.13851704      0.90725577     34.74387948 O
atom       3.03043407      6.67476028     34.77564494 O
atom       3.05646543      0.90725521     34.74387397 O
atom       6.09721535      6.67898804     34.76717319 O
atom       6.09753074      0.85330244     34.76769606 O
atom       1.52342910      7.80676424     24.80423451 O
atom       1.52347393      1.99208781     24.80074520 O
atom       4.57268593      7.80727735     24.80108392 O
atom       4.57252660      1.99228007     24.80090080 O
atom       7.62148599      7.80728293     24.80110096 O
atom       7.62173886      1.99229738     24.80087099 O
atom       9.25087832      3.47668937     34.87448997 O
atom       9.14396821      9.19813770     34.77837420 O
atom       2.94250440      3.47653860     34.87481543 O
atom       3.05081985      9.19821243     34.77824719 O
atom       6.09681556      3.37828240     34.79536805 O
atom       6.09733039      9.18952392     34.78148027 O
atom       1.52339463     11.01932119     24.73499501 O
atom       1.52335952      5.21152545     24.73206602 O
atom       4.57223855     11.01891022     24.73510254 O
atom       4.57288641      5.21075240     24.73225523 O
atom       7.62185160     11.01893906     24.73509883 O
atom       7.62114683      5.21078536     24.73224321 O
atom       9.14596644      9.45414856     26.72536934 O
atom       9.14628861      3.64212276     26.71404989 O
atom       3.04827346      9.45411514     26.72534565 O
atom       3.04800549      3.64211830     26.71404828 O
atom       6.09715048      9.45311590     26.72528490 O
atom       6.09718733      3.64007442     26.71740289 O
atom       1.52354203      5.02747571     32.75456113 O
atom       1.52372677     10.86863780     32.82099836 O
atom       4.58352437      5.00551427     32.79990517 O
atom       4.57358470     10.84289772     32.81085312 O
atom       7.61054243      5.00585971     32.79980704 O
atom       7.62130430     10.84332042     32.81075081 O
atom       1.52342066      8.12324237     28.77707989 O
atom       1.52346900      2.31308101     28.77267152 O
atom       4.57177847      8.12312578     28.77630092 O
atom       4.57170620      2.30852449     28.77067615 O
atom       7.62241359      8.12302803     28.77640449 O
atom       7.62264473      2.30848610     28.77075802 O
atom       9.13949764      6.32248341     30.70751107 O
atom       9.14329643      0.50726004     30.71504408 O
atom       3.05500198      6.32264468     30.70719929 O
atom       3.05120992      0.50734922     30.71509532 O
atom       6.09726671      6.32108146     30.71171531 O
atom       6.09719038      0.51853468     30.73873976 O
atom       1.52353011      4.91317733     28.80791041 O
atom       1.52359473     10.72197993     28.82817898 O
atom       4.57661878      4.90894052     28.81394170 O
atom       4.57654006     10.72155320     28.83026957 O
atom       7.61780634      4.90891393     28.81389759 O
atom       7.61789506     10.72153986     28.83032897 O
atom       9.14712083      9.56724348     30.66416271 O
atom       9.13973007      3.75816095     30.64169793 O
atom       3.04739167      9.56729738     30.66422161 O
atom       3.05460695      3.75820428     30.64162777 O
atom       6.09723931      9.56233839     30.66795111 O
atom       6.09710197      3.74853144     30.65588579 O
atom       1.52355755      7.96960102     32.58848381 O
atom       1.52353031      2.19373814     32.55453166 O
atom       4.56873186      7.95575998     32.59819579 O
atom       4.55861304      2.19034545     32.61133994 O
atom       7.62576573      7.95614371     32.59829702 O
atom       7.63582595      2.19091362     32.61133075 O
atom       9.14420068      6.47996267     26.82796495 O
atom       9.14671908      0.66468012     26.83233430 O
atom       3.05000399      6.47994905     26.82798153 O
atom       3.04763580      0.66466210     26.83232623 O
atom       6.09708178      6.48121009     26.82860299 O
atom       6.09719871      0.66368185     26.83086862 O
# 
# What follows is the current estimated Hessian matrix constructed by the BFGS algorithm.
# This is NOT the true Hessian matrix of the system.
# If you do not want this information here, switch it off using the "hessian_to_restart_geometry" keyword.
# 
trust_radius             0.9078964864
hessian_file
