# 
# This is the geometry file that corresponds to the current relaxation step.
# If you do not want this file to be written, set the "write_restart_geometry" flag to .false.
#  aims_uuid : AB63B43F-3BED-4ACC-AA68-DD6FC49947A9                                
# 
  set_vacuum_level        54.478439
lattice_vector      9.14729404      0.00000000      0.00000000
lattice_vector      0.00000000     11.62187862      0.00000000
lattice_vector      0.00000000      0.00000000     71.60693882
atom       1.52090199      4.36753034     36.55165030 Ga
  constrain_relaxation x
  constrain_relaxation y
atom       0.00377244     10.89254345     10.06215711 Ga
atom       0.00377206      5.08153286     10.06228209 Ga
atom       3.05287051     10.89254386     10.06215670 Ga
atom       3.05287080      5.08153312     10.06228197 Ga
atom       6.10196856     10.89254298     10.06215763 Ga
atom       6.10196848      5.08153258     10.06227978 Ga
atom       1.53099880      3.63296627      1.84661315 Ga
atom       1.53099881      9.44390737      1.84659411 Ga
atom       4.58009683      3.63296628      1.84661326 Ga
atom       4.58009678      9.44390739      1.84659393 Ga
atom       7.62919478      3.63296625      1.84661330 Ga
atom       7.62919487      9.44390738      1.84659399 Ga
atom       1.52751961      2.08538866     10.85178074 Ga
atom       1.52751971      7.89636839     10.85169758 Ga
atom       4.57661722      2.08538422     10.85178513 Ga
atom       4.57661870      7.89636719     10.85169722 Ga
atom       7.62571670      2.08538478     10.85178429 Ga
atom       7.62571540      7.89636780     10.85169655 Ga
atom       0.00656237      0.72192744      1.22598716 Ga
atom       0.00656239      6.53286046      1.22600334 Ga
atom       3.05566040      0.72192745      1.22598712 Ga
atom       3.05566037      6.53286048      1.22600331 Ga
atom       6.10475840      0.72192746      1.22598715 Ga
atom       6.10475840      6.53286049      1.22600319 Ga
atom       1.53083015      0.74255823      4.16798298 Ga
atom       1.53083015      6.55347702      4.16800613 Ga
atom       4.57992815      0.74255814      4.16798301 Ga
atom       4.57992818      6.55347699      4.16800576 Ga
atom       7.62902617      0.74255812      4.16798306 Ga
atom       7.62902612      6.55347699      4.16800581 Ga
atom       0.00412638      2.15951197      7.86481371 Ga
atom       0.00412703      7.97046114      7.86476014 Ga
atom       3.05322575      2.15951202      7.86481400 Ga
atom       3.05322501      7.97046116      7.86476028 Ga
atom       6.10232290      2.15951170      7.86481514 Ga
atom       6.10232289      7.97046122      7.86475955 Ga
atom       0.00583111      3.55770408      4.87755086 Ga
atom       0.00583098      9.36864086      4.87752154 Ga
atom       3.05492903      3.55770404      4.87755088 Ga
atom       3.05492920      9.36864085      4.87752152 Ga
atom       6.10402708      3.55770383      4.87755110 Ga
atom       6.10402709      9.36864098      4.87752123 Ga
atom       1.52933424     10.95222476      7.08411089 Ga
atom       1.52933425      5.14125801      7.08418215 Ga
atom       4.57843239     10.95222468      7.08411101 Ga
atom       4.57843221      5.14125807      7.08418126 Ga
atom       7.62753015     10.95222468      7.08411107 Ga
atom       7.62753030      5.14125809      7.08418130 Ga
atom       9.14331789      7.98410727     21.96104681 Ga
atom       9.14338153      2.17185231     21.96408972 Ga
atom       3.04525445      7.98410082     21.96104436 Ga
atom       3.04515419      2.17184599     21.96410695 Ga
atom       6.09428870      7.98385542     21.96147274 Ga
atom       6.09426650      2.17163177     21.96386366 Ga
atom       1.52496607      0.70581611     13.82524000 Ga
atom       1.52496549      6.51675317     13.82483148 Ga
atom       4.57407198      0.70581220     13.82525593 Ga
atom       4.57406727      6.51675271     13.82483585 Ga
atom       7.62315527      0.70581239     13.82525324 Ga
atom       7.62315729      6.51675318     13.82483263 Ga
atom       1.51982123     10.79812461     22.76036945 Ga
atom       1.51983956      4.98846243     22.75854657 Ga
atom       4.56882306     10.79779628     22.76057052 Ga
atom       4.56906023      4.98802777     22.75895045 Ga
atom       7.61809803     10.79780103     22.76056675 Ga
atom       7.61791076      4.98803117     22.75894188 Ga
atom       0.00130251      9.50887100     13.02668798 Ga
atom       0.00130442      3.69774963     13.02689080 Ga
atom       3.05040566      9.50887176     13.02668813 Ga
atom       3.05040312      3.69775036     13.02689124 Ga
atom       6.09950131      9.50887182     13.02668979 Ga
atom       6.09950092      3.69775177     13.02688424 Ga
atom       1.52453391      9.43767481     16.00877828 Ga
atom       1.52453307      3.62624798     16.00915696 Ga
atom       4.57363458      9.43766387     16.00879982 Ga
atom       4.57363269      3.62623539     16.00914345 Ga
atom       7.62272603      9.43766611     16.00879932 Ga
atom       7.62272702      3.62623709     16.00914159 Ga
atom       9.14375685     10.87444523     19.77927430 Ga
atom       9.14372354      5.06373999     19.77820409 Ga
atom       3.04560161     10.87444449     19.77927587 Ga
atom       3.04563328      5.06373695     19.77821385 Ga
atom       6.09467724     10.87438142     19.77942435 Ga
atom       6.09467588      5.06374234     19.77839215 Ga
atom      -0.00092255      0.63055314     16.80752671 Ga
atom      -0.00093616      6.44129671     16.80687030 Ga
atom       3.04816350      0.63055323     16.80752630 Ga
atom       3.04818035      6.44129468     16.80687377 Ga
atom       6.09726552      0.63051602     16.80757348 Ga
atom       6.09726824      6.44127216     16.80689552 Ga
atom       1.52191569      8.05660956     18.97837231 Ga
atom       1.52190468      2.24509304     18.98011576 Ga
atom       4.57104820      8.05660916     18.97842796 Ga
atom       4.57099518      2.24509237     18.98008707 Ga
atom       7.62007552      8.05661113     18.97842797 Ga
atom       7.62010129      2.24509430     18.98008453 Ga
atom       9.13887890      5.08031622     33.89048856 Ga
atom       9.13154252     10.84330273     33.96287106 Ga
atom       3.04009184      5.08087767     33.88884041 Ga
atom       3.04731418     10.84324427     33.96306584 Ga
atom       6.08972462      5.04165908     33.97731303 Ga
atom       6.08947432     10.83219221     33.96413335 Ga
atom       1.51771629      9.41937141     25.73149238 Ga
atom       1.51783328      3.60775974     25.72008372 Ga
atom       4.56715782      9.41803635     25.73133219 Ga
atom       4.56840136      3.60736248     25.72229730 Ga
atom       7.61556249      9.41802227     25.73132930 Ga
atom       7.61455765      3.60735473     25.72231351 Ga
atom       1.51563706      7.97108852     34.58992889 Ga
atom       1.51566718      2.07877395     34.50569395 Ga
atom       4.56797569      7.95166619     34.60537108 Ga
atom       4.58912433      2.11780723     34.60556621 Ga
atom       7.61061311      7.95150186     34.60519505 Ga
atom       7.59090744      2.11862244     34.60586983 Ga
atom       9.14055830      6.60208793     24.93191926 Ga
atom       9.14112340      0.78720930     24.93597243 Ga
atom       3.04363330      6.60209900     24.93189824 Ga
atom       3.04309091      0.78720816     24.93598446 Ga
atom       6.09210558      6.60201349     24.93264102 Ga
atom       6.09209163      0.78714972     24.93536196 Ga
atom       1.51753673      6.53574378     27.91374674 Ga
atom       1.51747116      0.71438068     27.92670219 Ga
atom       4.56773723      6.52970271     27.92112677 Ga
atom       4.56681078      0.71116147     27.92427429 Ga
atom       7.61464662      6.52970239     27.92128330 Ga
atom       7.61544387      0.71119206     27.92430330 Ga
atom       9.13676174      7.94622379     31.63764934 Ga
atom       9.12604084      2.14041717     31.60752704 Ga
atom       3.04236879      7.94627869     31.63744891 Ga
atom       3.05342284      2.14022031     31.60722067 Ga
atom       6.08950734      7.94158296     31.65282270 Ga
atom       6.08978956      2.14545384     31.66404090 Ga
atom       9.13940957      9.35288173     28.71154970 Ga
atom       9.13701021      3.53968872     28.69409142 Ga
atom       3.04202843      9.35285629     28.71155292 Ga
atom       3.04443108      3.53960992     28.69404745 Ga
atom       6.09073212      9.34867364     28.71256292 Ga
atom       6.09072320      3.53334971     28.70271694 Ga
atom       1.51606880      5.13523580     30.87495694 Ga
atom       1.51626339     10.93544071     30.92185383 Ga
atom       4.57073648      5.12693302     30.89820082 Ga
atom       4.56941756     10.93526558     30.92147316 Ga
atom       7.60921965      5.12696352     30.89836571 Ga
atom       7.61053987     10.93527183     30.92135868 Ga
atom       0.00311769      0.87002271     10.97880439 O
atom       0.00311600      6.68096532     10.97886963 O
atom       3.05221281      0.87002280     10.97880478 O
atom       3.05221469      6.68096544     10.97887001 O
atom       6.10131255      0.87002276     10.97880460 O
atom       6.10131268      6.68096389     10.97887007 O
atom       1.53108208      1.97937080      0.95846188 O
atom       1.53108208      7.79030247      0.95846524 O
atom       4.58018007      1.97937084      0.95846189 O
atom       4.58018004      7.79030245      0.95846511 O
atom       7.62927812      1.97937083      0.95846191 O
atom       7.62927817      7.79030245      0.95846514 O
atom       0.00258622      9.27979669     11.02255064 O
atom       0.00258591      3.46878026     11.02266668 O
atom       3.05168660      9.27979746     11.02255224 O
atom       3.05168681      3.46878088     11.02266838 O
atom       6.10078318      9.27979624     11.02255083 O
atom       6.10078332      3.46878064     11.02266691 O
atom       1.53108515      5.27871426      0.94469959 O
atom       1.53108516     11.08965699      0.94468162 O
atom       4.58018313      5.27871426      0.94469964 O
atom       4.58018314     11.08965701      0.94468148 O
atom       7.62928119      5.27871425      0.94469968 O
atom       7.62928120     11.08965700      0.94468152 O
atom       0.00640092      3.63902872      2.91885415 O
atom       0.00640087      9.44996690      2.91883491 O
atom       3.05549885      3.63902871      2.91885414 O
atom       3.05549892      9.44996689      2.91883487 O
atom       6.10459687      3.63902867      2.91885420 O
atom       6.10459689      9.44996690      2.91883464 O
atom       1.52835693     10.85086650      9.02148741 O
atom       1.52835696      5.03992602      9.02158868 O
atom       4.57745519     10.85086730      9.02148785 O
atom       4.57745471      5.03992636      9.02158757 O
atom       7.62655282     10.85086735      9.02148777 O
atom       7.62655314      5.03992642      9.02158744 O
atom       1.53045656      2.35140331      5.04851805 O
atom       1.53045659      8.16233747      5.04852034 O
atom       4.57955446      2.35140334      5.04851789 O
atom       4.57955468      8.16233732      5.04852024 O
atom       7.62865266      2.35140336      5.04851784 O
atom       7.62865246      8.16233734      5.04852020 O
atom       0.00465627      0.55719041      6.94986914 O
atom       0.00465661      6.36810059      6.94990324 O
atom       3.05375474      0.55719038      6.94986959 O
atom       3.05375437      6.36810054      6.94990354 O
atom       6.10285241      0.55719062      6.94986933 O
atom       6.10285241      6.36810037      6.94990325 O
atom       1.53011824     10.73131338      5.07319025 O
atom       1.53011820      4.92036804      5.07323352 O
atom       4.57921616     10.73131322      5.07318988 O
atom       4.57921619      4.92036803      5.07323315 O
atom       7.62831405     10.73131320      5.07318988 O
atom       7.62831398      4.92036801      5.07323312 O
atom       0.00500179      3.77586246      6.91451132 O
atom       0.00500178      9.58681217      6.91446605 O
atom       3.05410021      3.77586237      6.91451146 O
atom       3.05410026      9.58681213      6.91446618 O
atom       6.10319793      3.77586205      6.91451177 O
atom       6.10319794      9.58681235      6.91446597 O
atom       1.52861765      2.19890998      8.91335769 O
atom       1.52861767      8.00985004      8.91331643 O
atom       4.57771558      2.19890935      8.91336010 O
atom       4.57771587      8.00984974      8.91331615 O
atom       7.62681370      2.19890923      8.91335937 O
atom       7.62681335      8.00984972      8.91331553 O
atom       0.00626836      0.70201248      3.13687368 O
atom       0.00626841      6.51294536      3.13689341 O
atom       3.05536634      0.70201250      3.13687365 O
atom       3.05536628      6.51294536      3.13689337 O
atom       6.10446436      0.70201256      3.13687364 O
atom       6.10446436      6.51294544      3.13689317 O
atom       9.14292121      9.58076455     22.88726854 O
atom       9.14288043      3.77025194     22.88877757 O
atom       3.04432266      9.58076344     22.88726829 O
atom       3.04440257      3.77026216     22.88877564 O
atom       6.09361135      9.58081953     22.88721073 O
atom       6.09363451      3.76987060     22.88866845 O
atom       1.52569770     10.72557489     12.91525221 O
atom       1.52569769      4.91444117     12.91525225 O
atom       4.57479895     10.72557846     12.91525130 O
atom       4.57479609      4.91444135     12.91525335 O
atom       7.62389237     10.72557851     12.91524936 O
atom       7.62389464      4.91444124     12.91525181 O
atom       9.14229923      6.37328649     22.93084402 O
atom       9.14220902      0.56044196     22.93315914 O
atom       3.04403695      6.37328612     22.93082646 O
atom       3.04406998      0.56043336     22.93314570 O
atom       6.09317537      6.37293211     22.93084457 O
atom       6.09314495      0.56025500     22.93297290 O
atom       1.52622757      2.31642076     12.86436148 O
atom       1.52622789      8.12747905     12.86420338 O
atom       4.57532763      2.31641597     12.86436687 O
atom       4.57532908      8.12747754     12.86420476 O
atom       7.62442363      2.31641631     12.86436579 O
atom       7.62442223      8.12747816     12.86420345 O
atom       0.00035730      0.74845778     14.87155563 O
atom       0.00035432      6.55930132     14.87113044 O
atom       3.04945448      0.74845746     14.87155495 O
atom       3.04945619      6.55930053     14.87113159 O
atom       6.09855445      0.74844923     14.87158089 O
atom       6.09855388      6.55929307     14.87114374 O
atom       1.52069057      7.93907025     20.92204769 O
atom       1.52067937      2.12825914     20.92445272 O
atom       4.56989407      7.93916275     20.92210593 O
atom       4.56969222      2.12819593     20.92439625 O
atom       7.61878694      7.93916573     20.92210427 O
atom       7.61894885      2.12820158     20.92438961 O
atom       1.52378348     11.03584743     16.93102494 O
atom       1.52378197      5.22473444     16.93095955 O
atom       4.57286640     11.03584789     16.93102759 O
atom       4.57287836      5.22471053     16.93095872 O
atom       7.62199474     11.03584876     16.93103131 O
atom       7.62198388      5.22471020     16.93096320 O
atom       9.14449854      9.27197406     18.87169624 O
atom       9.14450094      3.46044164     18.87253336 O
atom       3.04632072      9.27197436     18.87169154 O
atom       3.04629529      3.46044373     18.87252820 O
atom       6.09541027      9.27202092     18.87163332 O
atom       6.09539549      3.46044943     18.87264947 O
atom       1.52325844      7.82690076     16.97678922 O
atom       1.52325412      2.01589332     16.97772779 O
atom       4.57237018      7.82689072     16.97681145 O
atom       4.57237069      2.01588991     16.97774320 O
atom       7.62143976      7.82689234     16.97681142 O
atom       7.62143091      2.01589232     16.97774653 O
atom      -0.00225302      0.86273316     18.81940778 O
atom      -0.00228945      6.67378754     18.81839865 O
atom       3.04682523      0.86273367     18.81940552 O
atom       3.04686382      6.67378613     18.81840067 O
atom       6.09593218      0.86268574     18.81948316 O
atom       6.09593486      6.67374043     18.81844208 O
atom       1.52097469     10.91661655     20.82623133 O
atom       1.52097497      5.10578225     20.82536200 O
atom       4.57002494     10.91653211     20.82635073 O
atom       4.57003513      5.10567819     20.82558168 O
atom       7.61921999     10.91653771     20.82635878 O
atom       7.61921925      5.10568142     20.82558723 O
atom       0.00003884      9.39310015     14.96869275 O
atom       0.00004611      3.58194706     14.96897476 O
atom       3.04914983      9.39309956     14.96869222 O
atom       3.04914088      3.58194682     14.96897488 O
atom       6.09824146      9.39310519     14.96869645 O
atom       6.09824067      3.58194549     14.96896699 O
atom       9.15698687      6.67436595     34.89094181 O
atom       9.13304822      0.91048832     34.85297594 O
atom       3.02145924      6.67418860     34.89101479 O
atom       3.04579975      0.91083113     34.85285123 O
atom       6.08959379      6.68402492     34.88257382 O
atom       6.08961975      0.86225137     34.87729715 O
atom       1.51828769      7.81613448     24.82837029 O
atom       1.51834152      2.00114454     24.82511676 O
atom       4.56750608      7.81661880     24.82513221 O
atom       4.56742351      2.00131752     24.82535530 O
atom       7.61634743      7.81662329     24.82510162 O
atom       7.61653222      2.00131124     24.82537275 O
atom       9.23931482      3.48208573     34.97424370 O
atom       9.13652052      9.20693370     34.88956144 O
atom       2.93925242      3.48321662     34.97467995 O
atom       3.04194641      9.20698216     34.88960136 O
atom       6.08974391      3.39292988     34.90790513 O
atom       6.08931329      9.20161157     34.89233393 O
atom       1.51872607     11.02920356     24.77556612 O
atom       1.51881000      5.22158746     24.77208367 O
atom       4.56761931     11.02877087     24.77577735 O
atom       4.56836533      5.22074810     24.77233642 O
atom       7.61710770     11.02874642     24.77578806 O
atom       7.61654496      5.22072587     24.77233986 O
atom       9.14026937      9.45849138     26.78090036 O
atom       9.14060579      3.64659772     26.76901431 O
atom       3.04249622      9.45853506     26.78092809 O
atom       3.04230566      3.64659980     26.76900525 O
atom       6.09134210      9.45750712     26.78084345 O
atom       6.09142685      3.64456853     26.77275587 O
atom       1.51583652      5.03813962     32.83801965 O
atom       1.51581649     10.88071547     32.90371885 O
atom       4.57782193      5.01700020     32.88218046 O
atom       4.56592660     10.85484378     32.89420476 O
atom       7.60167603      5.01695111     32.88219610 O
atom       7.61292822     10.85445126     32.89428876 O
atom       1.51720687      8.12507403     28.85930434 O
atom       1.51720771      2.31535027     28.85537720 O
atom       4.56532825      8.12475823     28.85813717 O
atom       4.56494499      2.31058119     28.85338810 O
atom       7.61627458      8.12488493     28.85803323 O
atom       7.61664278      2.31060639     28.85338337 O
atom       9.13211874      6.33501541     30.76618412 O
atom       9.13568226      0.51817768     30.77234777 O
atom       3.04759900      6.33470357     30.76665147 O
atom       3.04415659      0.51801566     30.77229409 O
atom       6.08982281      6.33483585     30.76991487 O
atom       6.08996924      0.53032721     30.79818846 O
atom       1.51696207      4.91518310     28.87340759 O
atom       1.51685517     10.72310684     28.89555553 O
atom       4.57009377      4.91097297     28.87992781 O
atom       4.57001568     10.72274953     28.89734679 O
atom       7.61096876      4.91097904     28.88002488 O
atom       7.61101489     10.72275696     28.89726118 O
atom       9.13932493      9.57718468     30.73958055 O
atom       9.13301254      3.77031032     30.71501643 O
atom       3.04082856      9.57709607     30.73953578 O
atom       3.04744288      3.77017878     30.71508911 O
atom       6.09007314      9.57194155     30.74358567 O
atom       6.09019075      3.76001838     30.72983859 O
atom       1.51597782      7.97752825     32.68219951 O
atom       1.51616631      2.20678278     32.63992810 O
atom       4.56042305      7.96284732     32.69367715 O
atom       4.55026660      2.20235809     32.70210871 O
atom       7.61872011      7.96278313     32.69353925 O
atom       7.62918437      2.20184873     32.70211837 O
atom       9.13830195      6.48788250     26.87871709 O
atom       9.14084690      0.67252649     26.88423847 O
atom       3.04414314      6.48789087     26.87867115 O
atom       3.04151577      0.67253226     26.88424717 O
atom       6.09126430      6.48936080     26.87921811 O
atom       6.09116623      0.67183039     26.88280183 O
# 
# What follows is the current estimated Hessian matrix constructed by the BFGS algorithm.
# This is NOT the true Hessian matrix of the system.
# If you do not want this information here, switch it off using the "hessian_to_restart_geometry" keyword.
# 
trust_radius             0.0141858826
hessian_file
