Mg4 V2 Bi2 O12                          
   1.0000000000000000     
     5.5200820000000004    0.0000000000000000    0.0000000000000000
     0.0000000000000000    6.7894769999999998   -3.1231279999999999
     0.0000000000000000   -0.0580230000000000    7.4731209999999999
   Mg   V    Bi   O 
     4     2     2    12
Direct
  0.7500000000000000  0.1016440000000003  0.2824900000000028
  0.2499990000000025  0.8983550000000022  0.7175099999999972
  0.7500000000000000  0.7175099999999972  0.8983550000000022
  0.2499990000000025  0.2824889999999982  0.1016440000000003
  0.7500000000000000  0.1986989999999977  0.8013019999999997
  0.2499990000000025  0.8013019999999997  0.1986980000000003
  0.2499990000000025  0.4104960000000020  0.5895050000000026
  0.7500000000000000  0.5895039999999980  0.4104960000000020
  0.7500000000000000  0.1021819999999991  0.5481169999999977
  0.2499990000000025  0.8978189999999984  0.4518830000000023
  0.2499990000000025  0.5481160000000003  0.1021799999999971
  0.7500000000000000  0.4518830000000023  0.8978189999999984
  0.9893739999999980  0.8822199999999967  0.1177810000000008
  0.4893730000000005  0.1177810000000008  0.8822199999999967
  0.0106269999999995  0.1177810000000008  0.8822199999999967
  0.5106260000000020  0.8822199999999967  0.1177810000000008
  0.5000000000000000  0.3285499999999999  0.3285499999999999
  0.0000000000000000  0.6714500000000001  0.6714500000000001
  0.0000000000000000  0.3285499999999999  0.3285499999999999
  0.5000000000000000  0.6714500000000001  0.6714500000000001

  0.00000000E+00  0.00000000E+00  0.00000000E+00
  0.00000000E+00  0.00000000E+00  0.00000000E+00
  0.00000000E+00  0.00000000E+00  0.00000000E+00
  0.00000000E+00  0.00000000E+00  0.00000000E+00
  0.00000000E+00  0.00000000E+00  0.00000000E+00
  0.00000000E+00  0.00000000E+00  0.00000000E+00
  0.00000000E+00  0.00000000E+00  0.00000000E+00
  0.00000000E+00  0.00000000E+00  0.00000000E+00
  0.00000000E+00  0.00000000E+00  0.00000000E+00
  0.00000000E+00  0.00000000E+00  0.00000000E+00
  0.00000000E+00  0.00000000E+00  0.00000000E+00
  0.00000000E+00  0.00000000E+00  0.00000000E+00
  0.00000000E+00  0.00000000E+00  0.00000000E+00
  0.00000000E+00  0.00000000E+00  0.00000000E+00
  0.00000000E+00  0.00000000E+00  0.00000000E+00
  0.00000000E+00  0.00000000E+00  0.00000000E+00
  0.00000000E+00  0.00000000E+00  0.00000000E+00
  0.00000000E+00  0.00000000E+00  0.00000000E+00
  0.00000000E+00  0.00000000E+00  0.00000000E+00
  0.00000000E+00  0.00000000E+00  0.00000000E+00
