# 
# This is the geometry file that corresponds to the current relaxation step.
# If you do not want this file to be written, set the "write_restart_geometry" flag to .false.
#  aims_uuid : A88509E5-494D-4CC8-A2FD-0B0E44972FCF                                
# 
lattice_vector      0.00013684      2.72413122      2.72426803
lattice_vector      2.72413117      0.00013679      2.72426800
lattice_vector      2.72385756      2.72385758     -0.00027363
atom_frac       0.00000000     -0.00000000     -0.00000000 Si
atom_frac       0.25000000      0.25000000      0.25000000 Si
# 
# What follows is the current estimated Hessian matrix constructed by the BFGS algorithm.
# This is NOT the true Hessian matrix of the system.
# If you do not want this information here, switch it off using the "hessian_to_restart_geometry" keyword.
# 
#trust_radius             0.2000000030
#hessian_file
