# Physical settings
  xc                 hse06 0.2
    hse_unit         Angstrom
    hybrid_xc_coeff  0.25
  spin               none
  relativistic       atomic_zora scalar
  include_spin_orbit

# k-point grid
  k_grid  12 12 12

# output DOS
  output dos_tetrahedron  -20.  0.  2001 

# output DOS
  output species_proj_dos_tetrahedron  -20.  0.  2001 

# exx_band_structure_version: 
# Technical keyword required to obtain a hybrid DFT band structure by the faster,
# O(N) real-space approach. Note that this version of the band structure computation
# usually "just works" for reasonably dense k-space grids. However, if a too small k-space grid is
# specified, the underlying Fourier transformation can fail and lead to significant or
# catastrophic band structure plot artifacts. In this case, a denser k-point grid will
# be needed to solve the issue. 

  exx_band_structure_version 1

# output band structure
  output band 0.5   0.5   0.5    0.0   0.0   0.0    21  L     Gamma
  output band 0.0   0.0   0.0    0.0   0.5   0.5    21  Gamma X
  output band 0.0   0.5   0.5    0.25  0.5   0.75   21  X     W
  output band 0.25  0.5   0.75   0.375 0.375 0.375  21  W     K

################################################################################
#
#  FHI-aims code project
#  Volker Blum, 2018
#
#  Suggested "intermediate" defaults for Ga atom (to be pasted into control.in file)
#
#  2020/09/15 These "intermediate" settings are identical to past "tight" defaults
#             and differ only in the "g" function that is now included in "tight".
#
################################################################################
  species        Ga
#     global species definitions
    nucleus             31
    mass                69.723
#
    l_hartree           6
#
    cut_pot             4.0          2.0  1.0
    basis_dep_cutoff    1e-4
#
    radial_base         54 7.0
    radial_multiplier   2
    angular_grids       specified
      division   0.3498   50
      division   0.6591  110
      division   0.9587  194
      division   1.2234  302
      division   1.4453  434
#      division   1.5860  590
#      division   1.8791  770
#      division   1.9525  974
#      division   2.3801 1202
#      outer_grid  1202
      outer_grid  434
################################################################################
#
#  Definition of "minimal" basis
#
################################################################################
#     valence basis states
    valence      4  s   2.
    valence      4  p   1.
    valence      3  d  10.
#     ion occupancy
    ion_occ      4  s   1.
    ion_occ      3  p   6.
    ion_occ      3  d  10.
################################################################################
#
#  Suggested additional basis functions. For production calculations, 
#  uncomment them one after another (the most important basis functions are
#  listed first).
#
#  Constructed for dimers: 1.85 A, 2.10 A, 2.45 A, 3.00 A, 4.00 A
#
################################################################################
#  "First tier" - improvements: -222.33 meV to -26.19 meV 
     hydro 2 p 1.2
     hydro 3 d 3.8
     hydro 4 f 6.8
     ionic 4 s auto
#  "Second tier" - improvements: -11.68 meV to -1.61 meV
#     hydro 5 g 10
#     hydro 4 p 3.6
#     hydro 4 f 13.2
#     hydro 6 h 14.4
#     hydro 4 d 5.2
#     hydro 1 s 0.45
#  "Third tier" - improvements: -0.64 meV to -0.15 meV
#     hydro 3 p 3.4
#     hydro 3 s 2.2
#     hydro 5 g 14
#     hydro 4 f 6.2
#     hydro 5 d 7.2
#  "Fourth tier"  -improvements: -0.12 meV and below
#     hydro 3 s 3.8
#     hydro 5 f 27.2
#     hydro 6 h 16
#     hydro 5 g 9.2
#     hydro 4 d 8.6
#     hydro 2 p 3.6  

################################################################################
#
#  FHI-aims code project
#  Volker Blum, 2018
#
#  Suggested "intermediate" defaults for As atom (to be pasted into control.in file)
#
#  2020/09/15 These "intermediate" settings are identical to past "tight" defaults
#             and differ only in the "g" function that is now included in "tight".
#
################################################################################
  species        As
#
    nucleus             33
    mass                74.92160
#
    l_hartree           6
#
    cut_pot             4.0          2.0  1.0
    basis_dep_cutoff    1e-4
#
    radial_base         55 7.0
    radial_multiplier   2
    angular_grids       specified
      division   0.3346   50
      division   0.6815  110
      division   0.9821  194
      division   1.2024  302
      division   1.4689  434
#      division   1.5802  590
#      division   1.6697  770
#      division   1.7649  974
#      division   2.6635 1202
#      outer_grid  1202
      outer_grid  434
################################################################################
#
#  Definition of "minimal" basis
#
################################################################################
#     valence basis states
    valence      4  s   2.
    valence      4  p   3.
    valence      3  d  10.
#     ion occupancy
    ion_occ      4  s   1.
    ion_occ      4  p   2.
    ion_occ      3  d  10.
################################################################################
#
#  Suggested additional basis functions. For production calculations, 
#  uncomment them one after another (the most important basis functions are
#  listed first).
#
#  Constructed for dimers: 1.75 A, 2.10 A, 2.50 A, 3.00 A, 4.00 A
#
################################################################################
#  "First tier" - improvements: -385.12 meV to -54.94 meV 
     hydro 3 d 4
     hydro 2 p 1.5
     hydro 4 f 6.8
     ionic 4 s auto
#  "Second tier" - improvements: -22.14 meV to -3.21 meV
#     hydro 5 g 10
#     hydro 6 h 13.6
#     hydro 4 p 4.3
#     hydro 4 f 15.6
#     hydro 4 d 5.4
#     hydro 1 s 0.6
#  "Third tier" - improvements: -0.57 meV to -0.13 meV
#     hydro 5 g 16.4
#     hydro 4 f 7.4
#     hydro 5 d 7.4
#     ionic 4 p auto
#     hydro 3 s 2.6     
#  "Fourth tier" - improvements: -0.30 meV and below
#     hydro 3 p 3
#     hydro 6 h 18.4
#     hydro 5 d 11.2
#     hydro 5 f 15.2
#     hydro 5 g 13.6
#     hydro 5 s 6.2   
