Na16 Ti28 O64                           
   1.00000000000000     
    12.1699560000000009    0.0000000000000000    0.0000000000000000
     0.0000000000000000   12.3487100000000005    0.0000000000000000
     0.0000000000000000    0.5564560000000000    9.0089129999999997
   Ti   Na   Ti   O 
     1    16    27    64
Direct
  0.1222484999999978  0.3684275000000028  0.7558950000000024
  0.0000000000000000  0.1224564999999984  0.6267599999999973
  0.2500000000000000  0.1138244999999998  0.8791110000000018
  0.2500000000000000  0.3861755000000002  0.1208889999999982
  0.0000000000000000  0.3775435000000016  0.3732400000000027
  0.0000000000000000  0.6224564999999984  0.6267599999999973
  0.2500000000000000  0.6138244999999998  0.8791110000000018
  0.2500000000000000  0.8861755000000002  0.1208889999999982
  0.0000000000000000  0.8775435000000016  0.3732400000000027
  0.5000000000000000  0.1224564999999984  0.6267599999999973
  0.7500000000000000  0.1138244999999998  0.8791110000000018
  0.7500000000000000  0.3861755000000002  0.1208889999999982
  0.5000000000000000  0.3775435000000016  0.3732400000000027
  0.5000000000000000  0.6224564999999984  0.6267599999999973
  0.7500000000000000  0.6138244999999998  0.8791110000000018
  0.7500000000000000  0.8861755000000002  0.1208889999999982
  0.5000000000000000  0.8775435000000016  0.3732400000000027
  0.3777515000000022  0.3684275000000028  0.7558950000000024
  0.0000000000000000  0.2500000000000000  0.0000000000000000
  0.1222484999999978  0.1315724999999972  0.2441049999999976
  0.3777515000000022  0.1315724999999972  0.2441049999999976
  0.2500000000000000  0.0000000000000000  0.5000000000000000
  0.2500000000000000  0.2500000000000000  0.5000000000000000
  0.1222484999999978  0.8684275000000028  0.7558950000000024
  0.3777515000000022  0.8684275000000028  0.7558950000000024
  0.0000000000000000  0.7500000000000000  0.0000000000000000
  0.1222484999999978  0.6315724999999972  0.2441049999999976
  0.3777515000000022  0.6315724999999972  0.2441049999999976
  0.2500000000000000  0.5000000000000000  0.5000000000000000
  0.2500000000000000  0.7500000000000000  0.5000000000000000
  0.6222484999999978  0.3684275000000028  0.7558950000000024
  0.8777515000000022  0.3684275000000028  0.7558950000000024
  0.5000000000000000  0.2500000000000000  0.0000000000000000
  0.6222484999999978  0.1315724999999972  0.2441049999999976
  0.8777515000000022  0.1315724999999972  0.2441049999999976
  0.7500000000000000  0.0000000000000000  0.5000000000000000
  0.7500000000000000  0.2500000000000000  0.5000000000000000
  0.6222484999999978  0.8684275000000028  0.7558950000000024
  0.8777515000000022  0.8684275000000028  0.7558950000000024
  0.5000000000000000  0.7500000000000000  0.0000000000000000
  0.6222484999999978  0.6315724999999972  0.2441049999999976
  0.8777515000000022  0.6315724999999972  0.2441049999999976
  0.7500000000000000  0.5000000000000000  0.5000000000000000
  0.7500000000000000  0.7500000000000000  0.5000000000000000
  0.2500000000000000  0.2596080000000001  0.7196140000000000
  0.2500000000000000  0.4739480000000000  0.7246039999999994
  0.0000000000000000  0.2543089999999992  0.7760389999999973
  0.0000000000000000  0.4585310000000007  0.7219479999999976
  0.3838144999999997  0.3588080000000033  0.9569699999999983
  0.1161855000000003  0.3588080000000033  0.9569699999999983
  0.3838144999999997  0.1411919999999967  0.0430300000000017
  0.1161855000000003  0.1411919999999967  0.0430300000000017
  0.0000000000000000  0.0414689999999993  0.2780520000000024
  0.2500000000000000  0.0260520000000000  0.2753960000000006
  0.2500000000000000  0.2403919999999999  0.2803860000000000
  0.0000000000000000  0.2456910000000008  0.2239610000000027
  0.1464989999999986  0.1251790000000028  0.4893580000000028
  0.3535010000000014  0.1251790000000028  0.4893580000000028
  0.3535010000000014  0.3748209999999972  0.5106419999999972
  0.1464989999999986  0.3748209999999972  0.5106419999999972
  0.2500000000000000  0.7596080000000001  0.7196140000000000
  0.2500000000000000  0.9739480000000000  0.7246039999999994
  0.0000000000000000  0.7543089999999992  0.7760389999999973
  0.0000000000000000  0.9585310000000007  0.7219479999999976
  0.3838144999999997  0.8588080000000033  0.9569699999999983
  0.1161855000000003  0.8588080000000033  0.9569699999999983
  0.3838144999999997  0.6411919999999967  0.0430300000000017
  0.1161855000000003  0.6411919999999967  0.0430300000000017
  0.0000000000000000  0.5414689999999993  0.2780520000000024
  0.2500000000000000  0.5260520000000000  0.2753960000000006
  0.2500000000000000  0.7403919999999999  0.2803860000000000
  0.0000000000000000  0.7456910000000008  0.2239610000000027
  0.1464989999999986  0.6251790000000028  0.4893580000000028
  0.3535010000000014  0.6251790000000028  0.4893580000000028
  0.3535010000000014  0.8748209999999972  0.5106419999999972
  0.1464989999999986  0.8748209999999972  0.5106419999999972
  0.7500000000000000  0.2596080000000001  0.7196140000000000
  0.7500000000000000  0.4739480000000000  0.7246039999999994
  0.5000000000000000  0.2543089999999992  0.7760389999999973
  0.5000000000000000  0.4585310000000007  0.7219479999999976
  0.8838144999999997  0.3588080000000033  0.9569699999999983
  0.6161855000000003  0.3588080000000033  0.9569699999999983
  0.8838144999999997  0.1411919999999967  0.0430300000000017
  0.6161855000000003  0.1411919999999967  0.0430300000000017
  0.5000000000000000  0.0414689999999993  0.2780520000000024
  0.7500000000000000  0.0260520000000000  0.2753960000000006
  0.7500000000000000  0.2403919999999999  0.2803860000000000
  0.5000000000000000  0.2456910000000008  0.2239610000000027
  0.6464989999999986  0.1251790000000028  0.4893580000000028
  0.8535010000000014  0.1251790000000028  0.4893580000000028
  0.8535010000000014  0.3748209999999972  0.5106419999999972
  0.6464989999999986  0.3748209999999972  0.5106419999999972
  0.7500000000000000  0.7596080000000001  0.7196140000000000
  0.7500000000000000  0.9739480000000000  0.7246039999999994
  0.5000000000000000  0.7543089999999992  0.7760389999999973
  0.5000000000000000  0.9585310000000007  0.7219479999999976
  0.8838144999999997  0.8588080000000033  0.9569699999999983
  0.6161855000000003  0.8588080000000033  0.9569699999999983
  0.8838144999999997  0.6411919999999967  0.0430300000000017
  0.6161855000000003  0.6411919999999967  0.0430300000000017
  0.5000000000000000  0.5414689999999993  0.2780520000000024
  0.7500000000000000  0.5260520000000000  0.2753960000000006
  0.7500000000000000  0.7403919999999999  0.2803860000000000
  0.5000000000000000  0.7456910000000008  0.2239610000000027
  0.6464989999999986  0.6251790000000028  0.4893580000000028
  0.8535010000000014  0.6251790000000028  0.4893580000000028
  0.8535010000000014  0.8748209999999972  0.5106419999999972
  0.6464989999999986  0.8748209999999972  0.5106419999999972
 
  0.00000000E+00  0.00000000E+00  0.00000000E+00
  0.00000000E+00  0.00000000E+00  0.00000000E+00
  0.00000000E+00  0.00000000E+00  0.00000000E+00
  0.00000000E+00  0.00000000E+00  0.00000000E+00
  0.00000000E+00  0.00000000E+00  0.00000000E+00
  0.00000000E+00  0.00000000E+00  0.00000000E+00
  0.00000000E+00  0.00000000E+00  0.00000000E+00
  0.00000000E+00  0.00000000E+00  0.00000000E+00
  0.00000000E+00  0.00000000E+00  0.00000000E+00
  0.00000000E+00  0.00000000E+00  0.00000000E+00
  0.00000000E+00  0.00000000E+00  0.00000000E+00
  0.00000000E+00  0.00000000E+00  0.00000000E+00
  0.00000000E+00  0.00000000E+00  0.00000000E+00
  0.00000000E+00  0.00000000E+00  0.00000000E+00
  0.00000000E+00  0.00000000E+00  0.00000000E+00
  0.00000000E+00  0.00000000E+00  0.00000000E+00
  0.00000000E+00  0.00000000E+00  0.00000000E+00
  0.00000000E+00  0.00000000E+00  0.00000000E+00
  0.00000000E+00  0.00000000E+00  0.00000000E+00
  0.00000000E+00  0.00000000E+00  0.00000000E+00
  0.00000000E+00  0.00000000E+00  0.00000000E+00
  0.00000000E+00  0.00000000E+00  0.00000000E+00
  0.00000000E+00  0.00000000E+00  0.00000000E+00
  0.00000000E+00  0.00000000E+00  0.00000000E+00
  0.00000000E+00  0.00000000E+00  0.00000000E+00
  0.00000000E+00  0.00000000E+00  0.00000000E+00
  0.00000000E+00  0.00000000E+00  0.00000000E+00
  0.00000000E+00  0.00000000E+00  0.00000000E+00
  0.00000000E+00  0.00000000E+00  0.00000000E+00
  0.00000000E+00  0.00000000E+00  0.00000000E+00
  0.00000000E+00  0.00000000E+00  0.00000000E+00
  0.00000000E+00  0.00000000E+00  0.00000000E+00
  0.00000000E+00  0.00000000E+00  0.00000000E+00
  0.00000000E+00  0.00000000E+00  0.00000000E+00
  0.00000000E+00  0.00000000E+00  0.00000000E+00
  0.00000000E+00  0.00000000E+00  0.00000000E+00
  0.00000000E+00  0.00000000E+00  0.00000000E+00
  0.00000000E+00  0.00000000E+00  0.00000000E+00
  0.00000000E+00  0.00000000E+00  0.00000000E+00
  0.00000000E+00  0.00000000E+00  0.00000000E+00
  0.00000000E+00  0.00000000E+00  0.00000000E+00
  0.00000000E+00  0.00000000E+00  0.00000000E+00
  0.00000000E+00  0.00000000E+00  0.00000000E+00
  0.00000000E+00  0.00000000E+00  0.00000000E+00
  0.00000000E+00  0.00000000E+00  0.00000000E+00
  0.00000000E+00  0.00000000E+00  0.00000000E+00
  0.00000000E+00  0.00000000E+00  0.00000000E+00
  0.00000000E+00  0.00000000E+00  0.00000000E+00
  0.00000000E+00  0.00000000E+00  0.00000000E+00
  0.00000000E+00  0.00000000E+00  0.00000000E+00
  0.00000000E+00  0.00000000E+00  0.00000000E+00
  0.00000000E+00  0.00000000E+00  0.00000000E+00
  0.00000000E+00  0.00000000E+00  0.00000000E+00
  0.00000000E+00  0.00000000E+00  0.00000000E+00
  0.00000000E+00  0.00000000E+00  0.00000000E+00
  0.00000000E+00  0.00000000E+00  0.00000000E+00
  0.00000000E+00  0.00000000E+00  0.00000000E+00
  0.00000000E+00  0.00000000E+00  0.00000000E+00
  0.00000000E+00  0.00000000E+00  0.00000000E+00
  0.00000000E+00  0.00000000E+00  0.00000000E+00
  0.00000000E+00  0.00000000E+00  0.00000000E+00
  0.00000000E+00  0.00000000E+00  0.00000000E+00
  0.00000000E+00  0.00000000E+00  0.00000000E+00
  0.00000000E+00  0.00000000E+00  0.00000000E+00
  0.00000000E+00  0.00000000E+00  0.00000000E+00
  0.00000000E+00  0.00000000E+00  0.00000000E+00
  0.00000000E+00  0.00000000E+00  0.00000000E+00
  0.00000000E+00  0.00000000E+00  0.00000000E+00
  0.00000000E+00  0.00000000E+00  0.00000000E+00
  0.00000000E+00  0.00000000E+00  0.00000000E+00
  0.00000000E+00  0.00000000E+00  0.00000000E+00
  0.00000000E+00  0.00000000E+00  0.00000000E+00
  0.00000000E+00  0.00000000E+00  0.00000000E+00
  0.00000000E+00  0.00000000E+00  0.00000000E+00
  0.00000000E+00  0.00000000E+00  0.00000000E+00
  0.00000000E+00  0.00000000E+00  0.00000000E+00
  0.00000000E+00  0.00000000E+00  0.00000000E+00
  0.00000000E+00  0.00000000E+00  0.00000000E+00
  0.00000000E+00  0.00000000E+00  0.00000000E+00
  0.00000000E+00  0.00000000E+00  0.00000000E+00
  0.00000000E+00  0.00000000E+00  0.00000000E+00
  0.00000000E+00  0.00000000E+00  0.00000000E+00
  0.00000000E+00  0.00000000E+00  0.00000000E+00
  0.00000000E+00  0.00000000E+00  0.00000000E+00
  0.00000000E+00  0.00000000E+00  0.00000000E+00
  0.00000000E+00  0.00000000E+00  0.00000000E+00
  0.00000000E+00  0.00000000E+00  0.00000000E+00
  0.00000000E+00  0.00000000E+00  0.00000000E+00
  0.00000000E+00  0.00000000E+00  0.00000000E+00
  0.00000000E+00  0.00000000E+00  0.00000000E+00
  0.00000000E+00  0.00000000E+00  0.00000000E+00
  0.00000000E+00  0.00000000E+00  0.00000000E+00
  0.00000000E+00  0.00000000E+00  0.00000000E+00
  0.00000000E+00  0.00000000E+00  0.00000000E+00
  0.00000000E+00  0.00000000E+00  0.00000000E+00
  0.00000000E+00  0.00000000E+00  0.00000000E+00
  0.00000000E+00  0.00000000E+00  0.00000000E+00
  0.00000000E+00  0.00000000E+00  0.00000000E+00
  0.00000000E+00  0.00000000E+00  0.00000000E+00
  0.00000000E+00  0.00000000E+00  0.00000000E+00
  0.00000000E+00  0.00000000E+00  0.00000000E+00
  0.00000000E+00  0.00000000E+00  0.00000000E+00
  0.00000000E+00  0.00000000E+00  0.00000000E+00
  0.00000000E+00  0.00000000E+00  0.00000000E+00
  0.00000000E+00  0.00000000E+00  0.00000000E+00
  0.00000000E+00  0.00000000E+00  0.00000000E+00
  0.00000000E+00  0.00000000E+00  0.00000000E+00
  0.00000000E+00  0.00000000E+00  0.00000000E+00
