ALGO = Normal
CH_LSPEC = True
CH_NEDOS = 40000
CH_SIGMA = 0.05
CLL = 0
CLN = 1
CLNT = 1
CLZ = 1.0
EDIFF = 1e-05
EDIFFG = -0.01
ICORELEVEL = 2
ISMEAR = 0
ISPIN = 1
KPAR = 2
LAECHG = True
LCHARG = False
LREAL = Auto
LWAVE = False
NBANDS = 1999
NCORE = 8
NELM = 500
NSIM = 16
PREC = Accurate
SIGMA = 0.05
SYMPREC = 1e-05
