 # Version information for this restart file 
 # current date 2021-10-06 15:08:31.862
 # current working dir /gporq2/scratch_0/usr/ftotti/Andrea/ISOLE
 # Program compiled at                               Fri Feb 8 15:10:36 CET 2019
 # Program compiled on                               cresco6x001.portici.enea.it
 # Program compiled for                           CRESCO6_ifort_intelmpi_libxsmm
 # Source code revision number                                         svn:18464
 &GLOBAL
   PRINT_LEVEL  MEDIUM
   PROJECT_NAME 10anelli
   RUN_TYPE  GEO_OPT
   FLUSH_SHOULD_FLUSH  T
 &END GLOBAL
 &MOTION
   &GEO_OPT
     TYPE  MINIMIZATION
     MAX_ITER  1000
     STEP_START_VAL  36
     &BFGS
       USE_RAT_FUN_OPT  T
     &END BFGS
   &END GEO_OPT
   &CELL_OPT
     OPTIMIZER  LBFGS
     STEP_START_VAL  1
     TYPE  DIRECT_CELL_OPT
     EXTERNAL_PRESSURE     1.0000000000000000E+00    0.0000000000000000E+00    0.0000000000000000E+00    0.0000000000000000E+00 \
         1.0000000000000000E+00    0.0000000000000000E+00    0.0000000000000000E+00    0.0000000000000000E+00    1.0000000000000000E+00
     KEEP_ANGLES  T
     CONSTRAINT  Z
     PRESSURE_TOLERANCE     9.9999999999999978E-02
     &BFGS
       USE_RAT_FUN_OPT  T
     &END BFGS
   &END CELL_OPT
   &PRINT
     &TRAJECTORY  SILENT
       FILENAME 
     &END TRAJECTORY
     &RESTART  SILENT
       FILENAME 
       &EACH
         MD  1
       &END EACH
     &END RESTART
   &END PRINT
 &END MOTION
 &FORCE_EVAL
   METHOD  QS
   &DFT
     BASIS_SET_FILE_NAME /afs/enea.it/por/user/ftotti/work/cp2k-data/BASIS_MOLOPT
     POTENTIAL_FILE_NAME /afs/enea.it/por/user/ftotti/work/cp2k-data/GTH_POTENTIALS
     WFN_RESTART_FILE_NAME zigzag4Macchie128HsymmDiagMult1.wfn
     UKS  T
     MULTIPLICITY  1
     &SCF
       MAX_SCF  200
       EPS_SCF     1.0000000000000004E-07
       CHOLESKY  INVERSE
       SCF_GUESS  ATOMIC
       &OT  F
         MINIMIZER  CG
         SAFE_DIIS  T
         N_HISTORY_VEC  7
         LINESEARCH  2PNT
         PRECONDITIONER  FULL_KINETIC
       &END OT
       &DIAGONALIZATION  T
         ALGORITHM  STANDARD
         EPS_ADAPT     1.0000000000000000E-02
       &END DIAGONALIZATION
       &OUTER_SCF  F
         TYPE  NONE
         EPS_SCF     9.9999999999999995E-07
         MAX_SCF  3
       &END OUTER_SCF
       &SMEAR  F
         METHOD  FERMI_DIRAC
         ELECTRONIC_TEMPERATURE     1.5000000000000000E+03
       &END SMEAR
       &MIXING  T
         METHOD  BROYDEN_MIXING
         ALPHA     5.0000000000000003E-02
         BETA     1.5000000000000000E+00
         NBUFFER  8
       &END MIXING
       &PRINT
         &RESTART  SILENT
           FILENAME 
           BACKUP_COPIES  1
           &EACH
             MD  1
           &END EACH
         &END RESTART
       &END PRINT
     &END SCF
     &QS
       EXTRAPOLATION  ASPC
       EXTRAPOLATION_ORDER  1
     &END QS
     &MGRID
       NGRIDS  5
       CUTOFF     5.0000000000000000E+02
       REL_CUTOFF     5.5000000000000000E+01
     &END MGRID
     &XC
       DENSITY_CUTOFF     1.0000000000000000E-10
       GRADIENT_CUTOFF     1.0000000000000000E-10
       TAU_CUTOFF     1.0000000000000001E-09
       &XC_FUNCTIONAL  NO_SHORTCUT
         &TPSS  F
         &END TPSS
         &PBE  T
           PARAMETRIZATION  REVPBE
         &END PBE
       &END XC_FUNCTIONAL
       &VDW_POTENTIAL
         POTENTIAL_TYPE  NON_LOCAL
         &NON_LOCAL
           TYPE  RVV10
           KERNEL_FILE_NAME /afs/enea.it/por/user/ftotti/work/cp2k-data/rVV10_kernel_table.dat
         &END NON_LOCAL
       &END VDW_POTENTIAL
     &END XC
     &PRINT
       &E_DENSITY_CUBE  SILENT
       &END E_DENSITY_CUBE
       &PDOS  MEDIUM
         ADD_LAST  NUMERIC
         FILENAME 
         COMPONENTS  T
         NLUMO  1000
       &END PDOS
     &END PRINT
   &END DFT
   &SUBSYS
     &CELL
       A     3.9961600000000033E+01    0.0000000000000000E+00    0.0000000000000000E+00
       B    -1.9980800000000016E+01    3.4607759999999999E+01    0.0000000000000000E+00
       C     0.0000000000000000E+00    0.0000000000000000E+00    7.0000000000000000E+01
       PERIODIC  XYZ
       MULTIPLE_UNIT_CELL  1 1 1
     &END CELL
     &COORD
C    1.6637439060053025E+00    4.8484787835248254E-02    2.0487603641976580E+01
C    1.6590303593528790E+00    1.4880131190845143E+00    2.0486260562276421E+01
C    4.1584081366886974E+00    4.5920092546911873E-02    2.0475301541409799E+01
C    4.1534745257519150E+00    1.4854693593359984E+00    2.0474099451313950E+01
C    4.1057252396970229E-01    2.2092054137907624E+00    2.0493479090860582E+01
C    4.0702604368323353E-01    3.6488619880622233E+00    2.0491051012618506E+01
C    2.9053327376327776E+00    2.2067799530416456E+00    2.0478963929608774E+01
C    2.9013691712022180E+00    3.6467089333753666E+00    2.0477532441984238E+01
C   -8.4072652379555890E-01    4.3699236785254651E+00    2.0497587961820408E+01
C    4.1476412562835439E+00    4.3656550681362907E+00    2.0472063759976763E+01
C    1.6537633111214338E+00    4.3681504867074565E+00    2.0482648768006978E+01
C   -8.3622935332467874E-01    1.4901187703913850E+00    2.0503922541091047E+01
C    5.3998075295690109E+00    2.2041844258761820E+00    2.0469081205783244E+01
C    2.9120948397377191E+00   -6.7283024348863951E-01    2.0481421884499127E+01
C    4.1705900896231834E-01   -6.7052454933536820E-01    2.0496128934887246E+01
C    5.4064600645352110E+00   -6.7567172002662834E-01    2.0471028383080256E+01
C   -8.4326173166346674E-01    5.8104207011744426E+00    2.0493594896036456E+01
C    1.6505717690274975E+00    5.8080302033111160E+00    2.0480670305160729E+01
C   -2.0899945715588766E+00    6.5319459394415347E+00    2.0498881283277044E+01
C   -2.0916588086626016E+00    7.9724239421835001E+00    2.0493911041081290E+01
C    4.0328036843165543E-01    6.5297793277833875E+00    2.0485101574631113E+01
C    4.0089699889476532E-01    7.9700269997395363E+00    2.0482368114937564E+01
C   -3.3379069346792245E+00    8.6947376950257880E+00    2.0498045801169035E+01
C    1.6474398579916265E+00    8.6896957010185183E+00    2.0476184267966975E+01
C   -8.4532449223195960E-01    8.6920206598725152E+00    2.0485735559084947E+01
C   -3.3371081585545639E+00    5.8119478011401542E+00    2.0510663524265969E+01
C    2.8968430065409843E+00    6.5273173255964583E+00    2.0474766036963267E+01
C   -2.0873356052142391E+00    3.6503325212716931E+00    2.0509104198054501E+01
C   -3.3386220489478347E+00    1.0135713103287037E+01    2.0492325885899369E+01
C   -8.4685231062786681E-01    1.0133103029531764E+01    2.0482009622336093E+01
C   -4.5837234838606209E+00    1.0858606514127615E+01    2.0495119148052456E+01
C   -4.5839329454446771E+00    1.2300430274868337E+01    2.0488713061663049E+01
C   -2.0922496213313599E+00    1.0855688705643811E+01    2.0484471635235025E+01
C   -2.0931446109120486E+00    1.2296768579042663E+01    2.0479644821984483E+01
C   -5.8284276614474342E+00    1.3023794683862393E+01    2.0490307964172491E+01
C   -8.4743708706122456E-01    1.3016505538570849E+01    2.0473318587277358E+01
C   -3.3382492658836678E+00    1.3020141888998074E+01    2.0481451758895009E+01
C   -5.8296718640399092E+00    1.0138341966327145E+01    2.0504555529488545E+01
C    3.9924115085657486E-01    1.0852649453956053E+01    2.0475615306034555E+01
C   -4.5843837952085851E+00    7.9747812863316083E+00    2.0509060428875859E+01
C   -5.8287940880210325E+00    1.4465493658180435E+01    2.0484011920307282E+01
C   -3.3389820749033876E+00    1.4461702796315764E+01    2.0475946572554214E+01
C   -7.0728812933821867E+00    1.5189510543384054E+01    2.0485360871681483E+01
C   -7.0738214994407844E+00    1.6631201460364402E+01    2.0479578555880003E+01
C   -4.5832349275079416E+00    1.5185441814543260E+01    2.0477275616242345E+01
C   -4.5838554523275326E+00    1.6627130088586110E+01    2.0471615264924630E+01
C   -8.3178825707625244E+00    1.7355178806620319E+01    2.0481556274338303E+01
C   -3.3384016954729465E+00    1.7346919483998462E+01    2.0465645463520953E+01
C   -5.8282226294005923E+00    1.7351033682800480E+01    2.0472918576696820E+01
C   -8.3182726305087691E+00    1.4469646553438404E+01    2.0492106636483982E+01
C   -2.0933019451184705E+00    1.5181529777863160E+01    2.0469701566279063E+01
C   -7.0743083833867644E+00    1.2303760966298970E+01    2.0497740017064597E+01
C   -8.3190132397674894E+00    1.8796493385641476E+01    2.0476387957174577E+01
C   -5.8290579747776574E+00    1.8792493020430122E+01    2.0467433728701380E+01
C   -9.5638159753351317E+00    1.9520111195603100E+01    2.0478990426353025E+01
C   -9.5656572135940561E+00    2.0960997621738112E+01    2.0474177956902381E+01
C   -7.0734702668056064E+00    1.9516254992729419E+01    2.0469190764212698E+01
C   -7.0745958864424479E+00    2.0957715555997762E+01    2.0464135180987174E+01
C   -1.0810893958334663E+01    2.1683921526776015E+01    2.0477211259026593E+01
C   -5.8286735159703476E+00    2.1677536997817292E+01    2.0457504205550116E+01
C   -8.3195514586453889E+00    2.1680757298010100E+01    2.0466727243103147E+01
C   -1.0809583930126605E+01    1.8800553625163154E+01    2.0486978135605760E+01
C   -4.5832841418724781E+00    1.9512444260331481E+01    2.0461454833100898E+01
C   -9.5635815749706730E+00    1.6635430223281467E+01    2.0488970469269287E+01
C   -1.0813103125386666E+01    2.3124649923031019E+01    2.0472956052510121E+01
C   -8.3210844866143248E+00    2.3121664621890318E+01    2.0462334940480730E+01
C   -1.2058950590998045E+01    2.3847326145697512E+01    2.0476537390925802E+01
C   -1.2061637948780351E+01    2.5287596382926793E+01    2.0473328386956084E+01
C   -9.5670244418673409E+00    2.3844354750793350E+01    2.0465561718782176E+01
C   -9.5690399976241203E+00    2.5284870993659492E+01    2.0461874472495992E+01
C   -1.3308267711651487E+01    2.6010007692396194E+01    2.0477259413096828E+01
C   -8.3225662539719014E+00    2.6004596244186338E+01    2.0454477131478878E+01
C   -1.0815467855652765E+01    2.6006957854130128E+01    2.0465943635242745E+01
C   -1.3305162138714607E+01    2.3127647304238270E+01    2.0484323566896048E+01
C   -7.0749308459680718E+00    2.3841277109381998E+01    2.0455228780233288E+01
C   -1.2056841465600842E+01    2.0964273575089219E+01    2.0485136123379366E+01
C   -1.3311672605839505E+01    2.7450090488752995E+01    2.0474854696436005E+01
C   -1.0818333535176849E+01    2.7447432221930509E+01    2.0463229535074866E+01
C   -1.4558571521206632E+01    2.8172228047802140E+01    2.0478706134612899E+01
C   -1.4562890692319309E+01    2.9612267091490114E+01    2.0476293038551717E+01
C   -1.2065378766654145E+01    2.8169238064534632E+01    2.0467973230264839E+01
C   -1.2069108559716193E+01    2.9609179023522845E+01    2.0465659447865097E+01
C   -1.5810336171721708E+01    3.0334163994355947E+01    2.0480271402435115E+01
C   -1.0822932549840885E+01    3.0328180384570697E+01    2.0458820107468910E+01
C   -1.3316902090101124E+01    3.0331046097717536E+01    2.0470022808948464E+01
C   -1.5804524034087041E+01    2.7453083526830682E+01    2.0485573551656817E+01
C   -9.5721125976518451E+00    2.8166746016534749E+01    2.0455799667492240E+01
C   -1.4554332033744226E+01    2.5290741112731411E+01    2.0484520599109644E+01
C    6.6525174423694873E+00    4.2908744709109881E-02    2.0466115568967634E+01
C    6.6476077255377968E+00    1.4825982674227625E+00    2.0465575863147492E+01
C    9.1470639646632801E+00    4.0023934795817652E-02    2.0458003357670052E+01
C    9.1419454654615464E+00    1.4795354668613145E+00    2.0458946138436595E+01
C    5.3953389425504161E+00    3.6439451449282450E+00    2.0468305043753933E+01
C    7.8938561338248974E+00    2.2012718926184625E+00    2.0462306272703895E+01
C    7.8888904093957830E+00    3.6407480580024973E+00    2.0462782030456239E+01
C    9.1351107373212415E+00    4.3595777954413117E+00    2.0461225646513491E+01
C    6.6414070094092068E+00    4.3627586805377545E+00    2.0465280321942387E+01
C    1.0388143150719765E+01    2.1981680160491521E+00    2.0456807293314437E+01
C    7.9006956874319485E+00   -6.7872085751727873E-01    2.0462075637642876E+01
C    1.0395396861194937E+01   -6.8128851988348704E-01    2.0453086392119463E+01
C    4.1438594147509686E+00    5.8054520169088457E+00    2.0471171495526875E+01
C    6.6371179172477799E+00    5.8026230584539711E+00    2.0465328589372714E+01
C    2.8939094519862509E+00    7.9676469733776090E+00    2.0473257735162477E+01
C    5.3902441371821102E+00    6.5246645261745497E+00    2.0467677489745554E+01
C    5.3868525905839784E+00    7.9646039866757938E+00    2.0466920185424684E+01
C    6.6329610282435647E+00    8.6839049278146767E+00    2.0464077400510352E+01
C    4.1401252506072748E+00    8.6869168707563134E+00    2.0469060997578651E+01
C    7.8832901270982179E+00    6.5216059271169202E+00    2.0463348096014659E+01
C    1.6452427006723425E+00    1.0130034521095288E+01    2.0473499554326089E+01
C    4.1373774302645288E+00    1.0127080381096485E+01    2.0467308872655050E+01
C    3.9771636555953960E-01    1.2293442067041038E+01    2.0471821591610492E+01
C    2.8913642323235345E+00    1.0849548204127011E+01    2.0468649995705228E+01
C    2.8891573966092108E+00    1.2290218073897906E+01    2.0465891307263302E+01
C    4.1351806373091700E+00    1.3009713710617667E+01    2.0462306141360656E+01
C    1.6437892878754610E+00    1.3013130742040032E+01    2.0466695729052937E+01
C    5.3837006226150113E+00    1.0846598641802206E+01    2.0463895312540071E+01
C   -8.4859503168363692E-01    1.4457878806480736E+01    2.0468753757017367E+01
C    1.6419146533336297E+00    1.4453922277051772E+01    2.0463473446396481E+01
C   -2.0941591542586400E+00    1.6622887664894360E+01    2.0464883362295222E+01
C    3.9692725303802306E-01    1.5177424041705111E+01    2.0463933833190154E+01
C    3.9558595427476634E-01    1.6618736244472160E+01    2.0460535196060494E+01
C    1.6414018270480102E+00    1.7338355688064929E+01    2.0458087725034371E+01
C   -8.4851419553679674E-01    1.7342731724289600E+01    2.0460512282702698E+01
C    2.8877517236606627E+00    1.5173382732604455E+01    2.0460120891907479E+01
C   -3.3391252304021815E+00    1.8788572546076576E+01    2.0460751388106608E+01
C   -8.4928329799372460E-01    1.8784406981232930E+01    2.0456917211025598E+01
C   -4.5837460092204321E+00    2.0954039755038988E+01    2.0456163852545188E+01
C   -2.0933092202051440E+00    1.9508534448750041E+01    2.0456415900092736E+01
C   -2.0936626184238842E+00    2.0950089157667243E+01    2.0451649272390203E+01
C   -8.4744841594488063E-01    2.1670152383592796E+01    2.0448947139353738E+01
C   -3.3379223571622556E+00    2.1673864177834080E+01    2.0450976486081526E+01
C    3.9632530087934797E-01    1.9504162799508656E+01    2.0454959359749271E+01
C   -5.8295171418383633E+00    2.3118731338491269E+01    2.0452553714814183E+01
C   -3.3379552040109806E+00    2.3115766618466871E+01    2.0445334175925797E+01
C   -7.0763100412702622E+00    2.5282438732841975E+01    2.0451106143547126E+01
C   -4.5829921294901590E+00    2.3838682373110654E+01    2.0445988675435821E+01
C   -4.5835780589030328E+00    2.5279805829082058E+01    2.0441098951098457E+01
C   -3.3370666015795951E+00    2.5999714006691427E+01    2.0434738523929408E+01
C   -5.8299928780957702E+00    2.6002254475382156E+01    2.0443780995083504E+01
C   -2.0917176132566260E+00    2.3835945152308977E+01    2.0440882057919090E+01
C   -8.3246819935831802E+00    2.7444897445746459E+01    2.0451265307265309E+01
C   -5.8313938581565576E+00    2.7442785102774245E+01    2.0439836750915216E+01
C   -9.5753586919039471E+00    2.9606683638062780E+01    2.0453707638259058E+01
C   -7.0782123162411041E+00    2.8164437679139741E+01    2.0444055578736339E+01
C   -7.0808333539795258E+00    2.9604980545436295E+01    2.0441797210914487E+01
C   -5.8341573547214125E+00    3.0324504207367344E+01    2.0435247653229865E+01
C   -8.3286940584882743E+00    3.0326116501665542E+01    2.0446984447053659E+01
C   -4.5843362144940834E+00    2.8162930449272160E+01    2.0432757637341535E+01
C    1.1642021302459773E+01    3.7751025922170382E-02    2.0449641799149884E+01
C    1.1636564580711092E+01    1.4765971282575650E+00    2.0452647055966874E+01
C    1.4137661108970656E+01    3.6047493960094934E-02    2.0441148013818072E+01
C    1.4132472497122988E+01    1.4748842648723024E+00    2.0446895244262741E+01
C    1.0382574807452405E+01    3.6375135737533135E+00    2.0458681262395647E+01
C    1.2883349424235945E+01    2.1955733961641326E+00    2.0451937522486130E+01
C    1.2876759175395906E+01    3.6342760993213203E+00    2.0454520156142106E+01
C    1.4123139809489482E+01    4.3531507303405430E+00    2.0451244880715709E+01
C    1.1628753469310197E+01    4.3565171442024022E+00    2.0457243211608123E+01
C    1.5379706721110555E+01    2.1948011878037943E+00    2.0446561134322938E+01
C    1.2891319281463593E+01   -6.8292027661483556E-01    2.0443498375270231E+01
C    1.5388172605928240E+01   -6.8409630630637686E-01    2.0433223721691522E+01
C    9.1302478073447180E+00    5.7991705785671925E+00    2.0461572961511099E+01
C    1.1622820522422629E+01    5.7953445110312050E+00    2.0455887565713471E+01
C    7.8793432971408537E+00    7.9613770563193160E+00    2.0462348528854662E+01
C    1.0376143319768149E+01    6.5182972972822188E+00    2.0458288290506459E+01
C    1.0371753459770325E+01    7.9579140326793842E+00    2.0454181896484318E+01
C    1.1618819993332725E+01    8.6773134745901253E+00    2.0441274342764071E+01
C    9.1257537509103539E+00    8.6807913849513998E+00    2.0457238208635761E+01
C    1.2869419534089396E+01    6.5145373163705225E+00    2.0447226061910385E+01
C    6.6296730159501660E+00    1.0124045027093450E+01    2.0462180571148284E+01
C    9.1220162304447729E+00    1.0120599979575465E+01    2.0451901199077213E+01
C    5.3808954716439636E+00    1.2286826894309069E+01    2.0461184761389866E+01
C    7.8760957585365645E+00    1.0843569609502833E+01    2.0455993308710170E+01
C    7.8726785007848017E+00    1.2283630874774808E+01    2.0450593264997192E+01
C    9.1197515567627203E+00    1.3003707667936581E+01    2.0434815447290198E+01
C    6.6271910788958408E+00    1.3006534879066219E+01    2.0455164324458533E+01
C    1.0369031229676391E+01    1.0840314021112050E+01    2.0436833670492767E+01
C    4.1327642945141916E+00    1.4450235134801284E+01    2.0459505129443407E+01
C    6.6241436261557736E+00    1.4447058476967396E+01    2.0450237282243023E+01
C    2.8856559809402422E+00    1.6614390962482581E+01    2.0457913718211493E+01
C    5.3790017302766024E+00    1.5170126786479237E+01    2.0454384459409216E+01
C    5.3760092437708398E+00    1.6610544623992983E+01    2.0450876866811356E+01
C    6.6226883108903518E+00    1.7330838476429268E+01    2.0437961981260962E+01
C    4.1314754912017282E+00    1.7333941441985186E+01    2.0454376569686556E+01
C    7.8708827858715136E+00    1.5167169422409232E+01    2.0435241236007418E+01
C    1.6399193129301195E+00    1.8779597862705923E+01    2.0456102072185320E+01
C    4.1288403343129447E+00    1.8774961587777632E+01    2.0452664947897279E+01
C    3.9579423541475306E-01    2.0946094188060176E+01    2.0451592986919685E+01
C    2.8858297855029562E+00    1.9499397320940499E+01    2.0454778048896465E+01
C    2.8844592003788163E+00    2.0941350490786085E+01    2.0453101001782855E+01
C    4.1302179162496691E+00    2.1661466490796634E+01    2.0449628603736873E+01
C    1.6419639673038859E+00    2.1666376600177507E+01    2.0451537565642582E+01
C    5.3750695936465194E+00    1.9495171060054833E+01    2.0443785660158287E+01
C   -8.4683748841657369E-01    2.3112438559915841E+01    2.0443405468667216E+01
C    1.6423960715141117E+00    2.3108624871983469E+01    2.0447267435122647E+01
C   -2.0914820975338908E+00    2.5277421637741323E+01    2.0435020733657343E+01
C    3.9907268322800810E-01    2.3832470617559498E+01    2.0441902924045703E+01
C    4.0055034769767994E-01    2.5275721994018859E+01    2.0434297556590693E+01
C    1.6472346723910878E+00    2.5996937097988550E+01    2.0430779289554078E+01
C   -8.4423039434009972E-01    2.5998058043691987E+01    2.0430849522157985E+01
C    2.8893572504847582E+00    2.3828997913086550E+01    2.0446923768693956E+01
C   -3.3376729729940364E+00    2.7441269365266397E+01    2.0430167957588523E+01
C   -8.4387916387895734E-01    2.7439761814995840E+01    2.0424908492768470E+01
C   -4.5860075817083876E+00    2.9603336468025024E+01    2.0430283557961211E+01
C   -2.0909513111044231E+00    2.8161607755504146E+01    2.0424838855702184E+01
C   -2.0917009594636067E+00    2.9602246425988088E+01    2.0421576171866153E+01
C   -8.4354279323163683E-01    3.0323061222782304E+01    2.0417426848306224E+01
C   -3.3389186319085709E+00    3.0323155025938139E+01    2.0424657170726590E+01
C    4.0299177797269820E-01    2.8160229033015742E+01    2.0420607639149221E+01
C    1.6635978583765308E+01    3.5163172131861979E-02    2.0429730413794566E+01
C    1.6632701776799681E+01    1.4748022625311692E+00    2.0437604982164306E+01
C    1.9135126100653572E+01    3.5690288621415926E-02    2.0414374741654331E+01
C    1.9134382162263634E+01    1.4701695105393846E+00    2.0412036979915335E+01
C    1.5371629955894525E+01    3.6306761264768377E+00    2.0448587413318116E+01
C    1.7879348249908528E+01    2.1937072758401772E+00    2.0432965974849893E+01
C    1.7871506387498329E+01    3.6298619472040272E+00    2.0438619653932829E+01
C    1.9119690409127337E+01    4.3603147152117652E+00    2.0414278080173169E+01
C    1.6620729940047376E+01    4.3511543010487443E+00    2.0439556586196918E+01
C    2.0387826464756728E+01    2.1846950349805656E+00    2.0403595180451131E+01
C    1.7885452122730083E+01   -6.8488337393234078E-01    2.0421213506896219E+01
C    2.0387018326941806E+01   -6.8566739540225363E-01    2.0414891151957448E+01
C    1.4115328316504252E+01    5.7912866086147385E+00    2.0444391170123186E+01
C    1.6609074922896937E+01    5.7853847801740512E+00    2.0415598205930170E+01
C    1.2864501268173616E+01    7.9534067592168505E+00    2.0435032887881825E+01
C    1.5363073972810630E+01    6.5114801548771819E+00    2.0420842022856210E+01
C    1.5357026414992815E+01    7.9460478524620175E+00    2.0386766529776022E+01
C    1.6614241096759521E+01    8.6675355257777458E+00    2.0302756914134427E+01
C    1.4112946272223256E+01    8.6730429824056117E+00    2.0402672520349594E+01
C    1.7861600597695606E+01    6.5069464501297754E+00    2.0345287900676439E+01
C    1.1614402177331224E+01    1.0116260575679357E+01    2.0427918278593520E+01
C    1.4106076420283207E+01    1.0110250351294496E+01    2.0371277141319389E+01
C    1.0364602437413836E+01    1.2279836507836905E+01    2.0424077444688578E+01
C    1.2863570014631790E+01    1.0836229200903437E+01    2.0392967143505054E+01
C    1.2856228810389922E+01    1.2275099011332220E+01    2.0364337833903406E+01
C    1.4112692766415581E+01    1.2998996408355227E+01    2.0281910473539888E+01
C    1.1613797784839496E+01    1.3000523383173764E+01    2.0388371209458761E+01
C    1.5363661265290713E+01    1.0833099160910887E+01    2.0287706346487887E+01
C    9.1154166696305960E+00    1.4443720745072330E+01    2.0423159787375734E+01
C    1.1606697505908965E+01    1.4439439624024260E+01    2.0361348566905708E+01
C    7.8666676748111257E+00    1.6607707072802786E+01    2.0425293415003690E+01
C    1.0364178382473312E+01    1.5165262709015163E+01    2.0387300552354684E+01
C    1.0357216425549566E+01    1.6603970377013990E+01    2.0362164797413907E+01
C    1.1612569242260527E+01    1.7330177858186108E+01    2.0279708588445761E+01
C    9.1148776953447896E+00    1.7329726156487919E+01    2.0390174747454061E+01
C    1.2862423706793393E+01    1.5164547809437682E+01    2.0279083104761614E+01
C    6.6186811543235491E+00    1.8771648259612228E+01    2.0431375467896792E+01
C    9.1074766605468032E+00    1.8768752382941507E+01    2.0367997189370527E+01
C    5.3716943070773135E+00    2.0935743461109841E+01    2.0441675798775840E+01
C    7.8661758249658709E+00    1.9493059982064050E+01    2.0399294724747502E+01
C    7.8586133562655371E+00    2.0934028093303798E+01    2.0384005350297588E+01
C    9.1119928308636489E+00    2.1662358405456061E+01    2.0301323445457307E+01
C    6.6192478797401604E+00    2.1656467207185234E+01    2.0418443392951339E+01
C    1.0362408363643725E+01    1.9496661001877992E+01    2.0285049774742980E+01
C    4.1287422504849642E+00    2.3104131003350165E+01    2.0447781019280526E+01
C    6.6133252198584342E+00    2.3098706246406486E+01    2.0414374451243624E+01
C    2.8922382505234290E+00    2.5274262847828950E+01    2.0438232354631669E+01
C    5.3771656308167044E+00    2.3825863585703850E+01    2.0438823524177554E+01
C    5.3777597347994677E+00    2.5269983216091187E+01    2.0438548445090078E+01
C    6.6341713218816869E+00    2.5985951142724215E+01    2.0414602138942769E+01
C    4.1380727422291139E+00    2.5994709016882108E+01    2.0433286103370342E+01
C    7.8643604910790987E+00    2.3822924611366272E+01    2.0345240682439002E+01
C    1.6482247473015945E+00    2.7439198471829982E+01    2.0421988463423684E+01
C    4.1388916870903349E+00    2.7443791204681826E+01    2.0412418859672218E+01
C    4.0343033745334667E-01    2.9602889272521377E+01    2.0416641455687770E+01
C    2.8969487319493989E+00    2.8161497385963742E+01    2.0414970136122360E+01
C    2.8980711404435939E+00    2.9606447871766612E+01    2.0415258043973346E+01
C    4.1421860039559659E+00    3.0330484928808470E+01    2.0422816456433065E+01
C    1.6506257967399158E+00    3.0323986760559521E+01    2.0416182701878110E+01
C    5.3841354420858973E+00    2.8172262936718756E+01    2.0403850950445246E+01
C    2.1635846118382368E+01    3.0101919931258929E-02    2.0422436145681715E+01
C    2.1638679778473513E+01    1.4706271382829015E+00    2.0419094336619626E+01
C    2.0399726029985253E+01    3.6215450150181567E+00    2.0416768330735916E+01
C    2.2885112364024085E+01   -6.8333485429496610E-01    2.0436432491493097E+01
C1    1.9097770375634560E+01    5.7647818701970222E+00    2.0337421412932411E+01
C1    1.7845758045304581E+01    7.9334275488124923E+00    2.0261105138644947E+01
C1    1.6595112666380686E+01    1.0100745772204119E+01    2.0236746641105469E+01
C1    1.5344878006290349E+01    1.2266346879090927E+01    2.0229070504958273E+01
C1    1.4094501009965402E+01    1.4431898888242443E+01    2.0225097980731913E+01
C1    1.2844479484448883E+01    1.6597785563876439E+01    2.0223940170223319E+01
C1    1.1594335339068891E+01    1.8763599955736783E+01    2.0226694304783905E+01
C1    1.0343858576894620E+01    2.0929401797113929E+01    2.0234984689697775E+01
C1    9.0918581107095289E+00    2.3096097693310128E+01    2.0261319308546494E+01
C1    7.8395646203318199E+00    2.5264722410350672E+01    2.0338100142083857E+01
C    6.6345090636044119E+00    2.7464081409194680E+01    2.0416919660029823E+01
C    5.3912033261059147E+00    2.9612681304653211E+01    2.0419365048157371E+01
C    3.4135544494606627E+01    5.2639111806153861E-02    2.0553008028539999E+01
C    3.4133485853584425E+01    1.4913621978795280E+00    2.0548568624495914E+01
C    3.2883957145903054E+01    2.2121906773860687E+00    2.0556120691581722E+01
C    3.2883757305863291E+01    3.6520580839404495E+00    2.0550442097549261E+01
C    3.4131928028881603E+01    4.3726545732811326E+00    2.0537724745704097E+01
C    3.1636792739966204E+01    4.3722331060562079E+00    2.0555149296917424E+01
C    3.5380829485103206E+01    2.2111194374295779E+00    2.0535259004098958E+01
C    3.5384950003223288E+01   -6.6738131630066166E-01    2.0540838801394500E+01
C    3.1637319032796565E+01    5.8148401223203487E+00    2.0547516496556554E+01
C    3.0392018749158616E+01    6.5356974538829800E+00    2.0550381498277996E+01
C    3.0392826649689507E+01    7.9777224659519224E+00    2.0538265535375860E+01
C    3.1639509875429233E+01    8.6987441319376355E+00    2.0526532896819198E+01
C    2.9147725723058638E+01    8.7002236746734649E+00    2.0535261846266792E+01
C    3.2884209605506221E+01    6.5350178742419214E+00    2.0534702377158176E+01
C    2.9150684405459604E+01    1.0145251619245954E+01    2.0522897373729521E+01
C    2.7911232785554375E+01    1.0870169895871278E+01    2.0526316760369134E+01
C    2.7909696529487597E+01    1.2312549189292715E+01    2.0520665604105375E+01
C    2.9155349100991813E+01    1.3032455173650336E+01    2.0508499986776769E+01
C    2.6668116611520574E+01    1.3038264846722438E+01    2.0532792997386174E+01
C    3.0397545674436650E+01    1.0865497301336530E+01    2.0514160733675382E+01
C    2.6664584587428109E+01    1.4478715566527582E+01    2.0526282050234787E+01
C    2.5421172315738726E+01    1.5202514459572271E+01    2.0542894890894804E+01
C    2.5417490953357078E+01    1.6643376314387055E+01    2.0531799543958002E+01
C    2.6664078880327878E+01    1.7363435572861000E+01    2.0510488334890947E+01
C    2.4173799257387181E+01    1.7366590951035395E+01    2.0548602339706388E+01
C    2.7910756771123729E+01    1.5198588557116608E+01    2.0508917383606740E+01
C    2.4169546816552970E+01    1.8807236747206506E+01    2.0533801765179962E+01
C    2.2925356174186170E+01    1.9530906342162336E+01    2.0549479888327763E+01
C    2.2920742936402732E+01    2.0970919782273054E+01    2.0533306967495847E+01
C    2.4167710245796226E+01    2.1690759686918568E+01    2.0509772008501724E+01
C    2.1676028248438278E+01    2.1695134919211299E+01    2.0548226133249511E+01
C    2.5416295556689203E+01    1.9527234655028696E+01    2.0510589478075492E+01
C    2.1671472225794908E+01    2.3134727591190334E+01    2.0531730462717483E+01
C    2.0426119709236733E+01    2.3858992658073852E+01    2.0545744354634273E+01
C    2.0421762584405133E+01    2.5297817943191514E+01    2.0529118731805621E+01
C    2.1668694052314315E+01    2.6017162867462382E+01    2.0507636682519522E+01
C    1.9175847685220038E+01    2.6021851037358964E+01    2.0540878822231598E+01
C    2.2918372119628444E+01    2.3854184062171552E+01    2.0508663876102787E+01