# 
# This is the geometry file that corresponds to the current relaxation step.
# If you do not want this file to be written, set the "write_restart_geometry" flag to .false.
#  aims_uuid : 5038B6FE-A9D0-4CCD-AD08-F6278B6028E8                                
# 
  set_vacuum_level        54.542068
lattice_vector      9.14729404      0.00000000      0.00000000
lattice_vector      0.00000000     11.62187862      0.00000000
lattice_vector      0.00000000      0.00000000     71.60693882
atom       1.52454905      6.43800324     36.62153076 Ga
atom       1.52454906      3.68427798     36.63092371 Ga
atom       0.00000010     10.91873547     10.06565395 Ga
atom      -0.00000008      5.10777202     10.06573284 Ga
atom       3.04909807     10.91873552     10.06565341 Ga
atom       3.04909876      5.10777141     10.06573277 Ga
atom       6.09819621     10.91873531     10.06565492 Ga
atom       6.09819571      5.10777160     10.06573291 Ga
atom       1.52454947      3.66838709      1.85004808 Ga
atom       1.52454940      9.47932618      1.85003267 Ga
atom       4.57364715      3.66838779      1.85005129 Ga
atom       4.57364712      9.47932847      1.85003267 Ga
atom       7.62274494      3.66838708      1.85004831 Ga
atom       7.62274502      9.47932598      1.85003302 Ga
atom       1.52454908      2.11181829     10.85447254 Ga
atom       1.52454949      7.92280009     10.85444811 Ga
atom       4.57364707      2.11181807     10.85447522 Ga
atom       4.57364778      7.92280237     10.85444686 Ga
atom       7.62274518      2.11181843     10.85447388 Ga
atom       7.62274407      7.92280238     10.85444707 Ga
atom       0.00000022      0.75740792      1.22976939 Ga
atom       0.00000025      6.56834364      1.22977548 Ga
atom       3.04909775      0.75740522      1.22976930 Ga
atom       3.04909703      6.56834267      1.22977335 Ga
atom       6.09819661      0.75740542      1.22976955 Ga
atom       6.09819721      6.56834255      1.22977348 Ga
atom       1.52454954      0.77566898      4.17180332 Ga
atom       1.52454943      6.58659551      4.17181177 Ga
atom       4.57364711      0.77566854      4.17180614 Ga
atom       4.57364714      6.58659767      4.17181010 Ga
atom       7.62274489      0.77566895      4.17180355 Ga
atom       7.62274494      6.58659546      4.17181177 Ga
atom       9.14729391      2.19101720      7.86766961 Ga
atom       0.00000019      8.00196676      7.86765522 Ga
atom       3.04909869      2.19101685      7.86766961 Ga
atom       3.04909806      8.00196654      7.86765474 Ga
atom       6.09819585      2.19101671      7.86766982 Ga
atom       6.09819616      8.00196644      7.86765372 Ga
atom       0.00000020      3.59098678      4.88088516 Ga
atom       0.00000014      9.40191820      4.88086442 Ga
atom       3.04909774      3.59098650      4.88088796 Ga
atom       3.04909852      9.40191782      4.88086548 Ga
atom       6.09819657      3.59098640      4.88088813 Ga
atom       6.09819582      9.40191792      4.88086538 Ga
atom       1.52454908     10.98408155      7.08778379 Ga
atom       1.52454867      5.17313274      7.08783309 Ga
atom       4.57364723     10.98408040      7.08778534 Ga
atom       4.57364715      5.17313386      7.08783273 Ga
atom       7.62274511     10.98408145      7.08778410 Ga
atom       7.62274563      5.17313266      7.08783293 Ga
atom      -0.00002388      7.99242669     21.96351151 Ga
atom       9.14727197      2.18102143     21.96566455 Ga
atom       3.04912216      7.99242667     21.96351159 Ga
atom       3.04912033      2.18102142     21.96566454 Ga
atom       6.09819614      7.99248186     21.96371814 Ga
atom       6.09819620      2.18113513     21.96557695 Ga
atom       1.52454908      0.72933681     13.82741554 Ga
atom       1.52454909      6.54025697     13.82713841 Ga
atom       4.57364281      0.72933765     13.82742131 Ga
atom       4.57364001      6.54025981     13.82713420 Ga
atom       7.62274946      0.72933801     13.82742104 Ga
atom       7.62275223      6.54025980     13.82713400 Ga
atom       1.52454914     10.80693593     22.76192266 Ga
atom       1.52454915      4.99732961     22.76165255 Ga
atom       4.57367245     10.80718062     22.76206096 Ga
atom       4.57375927      4.99768634     22.76165205 Ga
atom       7.62271982     10.80718060     22.76206096 Ga
atom       7.62263301      4.99768636     22.76165205 Ga
atom       9.14729442      9.53294804     13.03016579 Ga
atom       9.14729578      3.72189482     13.03021995 Ga
atom       3.04909793      9.53294797     13.03016573 Ga
atom       3.04909635      3.72189510     13.03022007 Ga
atom       6.09819605      9.53294765     13.03017279 Ga
atom       6.09819627      3.72189474     13.03022127 Ga
atom       1.52454912      9.45466520     16.01185167 Ga
atom       1.52454911      3.64339067     16.01197001 Ga
atom       4.57364349      9.45466479     16.01186429 Ga
atom       4.57364436      3.64339429     16.01196104 Ga
atom       7.62274882      9.45466475     16.01186443 Ga
atom       7.62274794      3.64339423     16.01196107 Ga
atom       9.14724589     10.88879726     19.78086707 Ga
atom      -0.00002620      5.07808962     19.78068158 Ga
atom       3.04914641     10.88879722     19.78086706 Ga
atom       3.04912449      5.07808962     19.78068160 Ga
atom       6.09819615     10.88876613     19.78074523 Ga
atom       6.09819616      5.07808291     19.78049912 Ga
atom       0.00000813      0.64800600     16.80962108 Ga
atom       9.14729392      6.45867199     16.80916718 Ga
atom       3.04909009      0.64800611     16.80962103 Ga
atom       3.04909835      6.45867204     16.80916721 Ga
atom       6.09819616      0.64800401     16.80960321 Ga
atom       6.09819616      6.45868659     16.80912959 Ga
atom       1.52454911      8.07156561     18.98141552 Ga
atom       1.52454909      2.26040593     18.98269364 Ga
atom       4.57366562      8.07155156     18.98142534 Ga
atom       4.57364754      2.26039776     18.98263816 Ga
atom       7.62272665      8.07155158     18.98142539 Ga
atom       7.62274479      2.26039779     18.98263814 Ga
atom      -0.03586224      5.05792839     33.86569414 Ga
atom       9.10800424     10.86860779     33.92737732 Ga
atom       3.08496061      5.05792841     33.86569410 Ga
atom       3.08838825     10.86860780     33.92737737 Ga
atom       6.09819622      5.05660800     33.95170080 Ga
atom       6.09819627     10.86550432     33.95891455 Ga
atom       1.52454919      9.42574150     25.73316150 Ga
atom       1.52454918      3.61399427     25.72552782 Ga
atom       4.57216166      9.42630080     25.73415554 Ga
atom       4.57189381      3.61492875     25.72629951 Ga
atom       7.62423074      9.42630079     25.73415576 Ga
atom       7.62449854      3.61492878     25.72629967 Ga
atom       1.52454927      8.12696425     34.67785260 Ga
atom       1.52454925      2.00413804     34.66960668 Ga
atom       4.59921541      7.96214306     34.58631523 Ga
atom       4.59909884      2.16190374     34.58543248 Ga
atom       7.59717706      7.96214307     34.58631530 Ga
atom       7.59729365      2.16190372     34.58543246 Ga
atom       9.14765797      6.61002924     24.93510776 Ga
atom       9.14782762      0.79584925     24.93603479 Ga
atom       3.04873439      6.61002920     24.93510777 Ga
atom       3.04856475      0.79584925     24.93603474 Ga
atom       6.09819619      6.60972643     24.93620920 Ga
atom       6.09819618      0.79573030     24.93638813 Ga
atom       1.52454918      6.53166184     27.92093668 Ga
atom       1.52454920      0.71284385     27.92471594 Ga
atom       4.57246718      6.53567259     27.92035995 Ga
atom       4.57236539      0.71736224     27.92073085 Ga
atom       7.62392525      6.53567262     27.92036004 Ga
atom       7.62402698      0.71736225     27.92073071 Ga
atom       9.16202860      7.95098043     31.66774461 Ga
atom       9.16174007      2.14851267     31.66612335 Ga
atom       3.03436389      7.95098043     31.66774444 Ga
atom       3.03465240      2.14851268     31.66612343 Ga
atom       6.09819625      7.94614708     31.62366838 Ga
atom       6.09819624      2.15353815     31.62717902 Ga
atom       9.15066350      9.35396995     28.71727923 Ga
atom       9.14975685      3.53696045     28.70557470 Ga
atom       3.04572897      9.35396994     28.71727916 Ga
atom       3.04663559      3.53696045     28.70557474 Ga
atom       6.09819618      9.35395350     28.71066066 Ga
atom       6.09819621      3.53755109     28.69767034 Ga
atom       1.52454918      5.13384037     30.89384983 Ga
atom       1.52454921     10.94140417     30.92938146 Ga
atom       4.57930814      5.14355848     30.87886413 Ga
atom       4.57714388     10.95249065     30.90631264 Ga
atom       7.61708432      5.14355848     30.87886411 Ga
atom       7.61924857     10.95249065     30.90631248 Ga
atom      -0.00000009      0.89676582     10.98019432 O
atom       9.14729298      6.70772114     10.98024848 O
atom       3.04909834      0.89676569     10.98019417 O
atom       3.04909943      6.70772069     10.98024843 O
atom       6.09819609      0.89676645     10.98019401 O
atom       6.09819598      6.70772084     10.98024875 O
atom       1.52454965      2.01474073      0.96182955 O
atom       1.52454807      7.82567524      0.96182610 O
atom       4.57364716      2.01473853      0.96183106 O
atom       4.57364725      7.82567317      0.96182912 O
atom       7.62274478      2.01474080      0.96182967 O
atom       7.62274621      7.82567505      0.96182636 O
atom      -0.00000036      9.30569983     11.02465353 O
atom      -0.00000055      3.49470213     11.02468449 O
atom       3.04909866      9.30570021     11.02465384 O
atom       3.04909899      3.49470177     11.02468468 O
atom       6.09819605      9.30570100     11.02465690 O
atom       6.09819591      3.49470250     11.02468650 O
atom       1.52454847      5.31412335      0.94807968 O
atom       1.52454784     11.12506489      0.94806859 O
atom       4.57364715      5.31412267      0.94807824 O
atom       4.57364726     11.12506447      0.94806275 O
atom       7.62274592      5.31412345      0.94807996 O
atom       7.62274653     11.12506483      0.94806923 O
atom       0.00000025      3.67385567      2.92198244 O
atom       0.00000026      9.48479233      2.92196696 O
atom       3.04909688      3.67385473      2.92198471 O
atom       3.04909848      9.48479433      2.92196698 O
atom       6.09819742      3.67385474      2.92198481 O
atom       6.09819578      9.48479425      2.92196702 O
atom       1.52454895     10.87957417      9.02428523 O
atom       1.52454941      5.06864785      9.02435017 O
atom       4.57364753     10.87957482      9.02428594 O
atom       4.57364736      5.06864604      9.02434940 O
atom       7.62274493     10.87957388      9.02428560 O
atom       7.62274464      5.06864758      9.02434983 O
atom       1.52454884      2.38480510      5.05120598 O
atom       1.52454908      8.19574084      5.05119756 O
atom       4.57364709      2.38480427      5.05121068 O
atom       4.57364717      8.19573996      5.05120197 O
atom       7.62274560      2.38480513      5.05120604 O
atom       7.62274527      8.19574083      5.05119750 O
atom       0.00000000      0.58892409      6.95208615 O
atom       0.00000014      6.39985434      6.95211595 O
atom       3.04909876      0.58892315      6.95208809 O
atom       3.04909796      6.39985380      6.95211619 O
atom       6.09819566      0.58892324      6.95208783 O
atom       6.09819633      6.39985368      6.95211544 O
atom       1.52454918     10.76424625      5.07621876 O
atom       1.52454915      4.95330788      5.07624668 O
atom       4.57364705     10.76424603      5.07622140 O
atom       4.57364707      4.95330984      5.07624662 O
atom       7.62274526     10.76424619      5.07621877 O
atom       7.62274529      4.95330779      5.07624659 O
atom       0.00000015      3.80760962      6.91724097 O
atom       0.00000018      9.61854780      6.91721347 O
atom       3.04909831      3.80761026      6.91724250 O
atom       3.04909908      9.61854846      6.91721478 O
atom       6.09819601      3.80761012      6.91724248 O
atom       6.09819519      9.61854856      6.91721438 O
atom       1.52454932      2.22860271      8.91564855 O
atom       1.52454918      8.03954826      8.91564407 O
atom       4.57364723      2.22860379      8.91564977 O
atom       4.57364751      8.03954923      8.91564297 O
atom       7.62274489      2.22860280      8.91564910 O
atom       7.62274474      8.03954864      8.91564327 O
atom       0.00000015      0.73633133      3.14039009 O
atom       0.00000017      6.54726546      3.14039666 O
atom       3.04909914      0.73633031      3.14038993 O
atom       3.04909803      6.54726673      3.14039551 O
atom       6.09819525      0.73633044      3.14039016 O
atom       6.09819629      6.54726665      3.14039557 O
atom      -0.00018516      9.59068472     22.88449529 O
atom       9.14703692      3.78026186     22.88623429 O
atom       3.04928343      9.59068472     22.88449537 O
atom       3.04935538      3.78026181     22.88623436 O
atom       6.09819613      9.59085746     22.88458855 O
atom       6.09819616      3.78030906     22.88629811 O
atom       1.52454910     10.74953539     12.91616237 O
atom       1.52454897      4.93847709     12.91609332 O
atom       4.57364774     10.74953566     12.91616970 O
atom       4.57364631      4.93847457     12.91610051 O
atom       7.62274455     10.74953558     12.91616994 O
atom       7.62274610      4.93847481     12.91610006 O
atom      -0.00030266      6.38196275     22.93127471 O
atom      -0.00034628      0.56933835     22.93177246 O
atom       3.04940096      6.38196270     22.93127471 O
atom       3.04944456      0.56933833     22.93177240 O
atom       6.09819615      6.38218903     22.93191530 O
atom       6.09819617      0.56965491     22.93229076 O
atom       1.52454911      2.34035492     12.86608759 O
atom       1.52454911      8.15138403     12.86602610 O
atom       4.57364639      2.34035459     12.86609142 O
atom       4.57364669      8.15138644     12.86602649 O
atom       7.62274588      2.34035490     12.86609114 O
atom       7.62274558      8.15138660     12.86602656 O
atom       0.00000474      0.76968112     14.87282674 O
atom       9.14729664      6.58053254     14.87251566 O
atom       3.04909341      0.76968126     14.87282674 O
atom       3.04909554      6.58053252     14.87251569 O
atom       6.09819618      0.76968414     14.87282310 O
atom       6.09819617      6.58053793     14.87250062 O
atom       1.52454916      7.95019406     20.92294319 O
atom       1.52454912      2.13977216     20.92471142 O
atom       4.57373466      7.95016844     20.92294599 O
atom       4.57367077      2.13971880     20.92461042 O
atom       7.62265761      7.95016845     20.92294598 O
atom       7.62272159      2.13971877     20.92461034 O
atom       1.52454913     11.05375303     16.93081826 O
atom       1.52454913      5.24263930     16.93063503 O
atom       4.57363899     11.05376026     16.93081458 O
atom       4.57364806      5.24263621     16.93063252 O
atom       7.62275328     11.05376018     16.93081480 O
atom       7.62274423      5.24263614     16.93063265 O
atom       9.14728108      9.28701030     18.87103610 O
atom       0.00000433      3.47588030     18.87185447 O
atom       3.04911120      9.28701028     18.87103610 O
atom       3.04909391      3.47588028     18.87185453 O
atom       6.09819614      9.28701447     18.87087427 O
atom       6.09819617      3.47586144     18.87172248 O
atom       1.52454912      7.84363152     16.97787682 O
atom       1.52454908      2.03276862     16.97854264 O
atom       4.57362101      7.84361924     16.97785460 O
atom       4.57362378      2.03276034     16.97850946 O
atom       7.62277126      7.84361918     16.97785466 O
atom       7.62276856      2.03276031     16.97850958 O
atom       9.14730626      0.87756851     18.81982742 O
atom       9.14729892      6.68836445     18.81919340 O
atom       3.04908602      0.87756848     18.81982741 O
atom       3.04909338      6.68836447     18.81919345 O
atom       6.09819617      0.87756995     18.81975952 O
atom       6.09819613      6.68838356     18.81909879 O
atom       1.52454913     10.92914436     20.82632448 O
atom       1.52454914      5.11835678     20.82646276 O
atom       4.57372255     10.92916919     20.82631055 O
atom       4.57373291      5.11840408     20.82636878 O
atom       7.62266976     10.92916927     20.82631052 O
atom       7.62265942      5.11840397     20.82636873 O
atom       0.00000045      9.41307768     14.97063395 O
atom       9.14729853      3.60194845     14.97070733 O
atom       3.04909775      9.41307752     14.97063387 O
atom       3.04909373      3.60194814     14.97070722 O
atom       6.09819620      9.41307748     14.97064541 O
atom       6.09819616      3.60194609     14.97070959 O
atom      -0.03964592      6.63198568     34.90302296 O
atom       9.07911092      0.88204229     34.84809453 O
atom       3.08874432      6.63198574     34.90302288 O
atom       3.11728159      0.88204230     34.84809458 O
atom       6.09819622      6.69841763     34.86982418 O
atom       6.09819626      0.89556489     34.85740113 O
atom       1.52454917      7.82518829     24.82289648 O
atom       1.52454916      2.01071235     24.82060453 O
atom       4.57379971      7.82476442     24.82595992 O
atom       4.57360171      2.01024063     24.82418596 O
atom       7.62259267      7.82476446     24.82595995 O
atom       7.62279067      2.01024066     24.82418608 O
atom      -0.03691385      3.48976551     34.91448105 O
atom       9.07648284      9.24292164     34.86459911 O
atom       3.08601219      3.48976546     34.91448097 O
atom       3.11990968      9.24292166     34.86459916 O
atom       6.09819624      3.42171416     34.88350338 O
atom       6.09819625      9.22405869     34.87499833 O
atom       1.52454917     11.03590213     24.77306906 O
atom       1.52454915      5.22763277     24.77180569 O
atom       4.57351120     11.03617772     24.77407825 O
atom       4.57359487      5.22800518     24.77258685 O
atom       7.62288115     11.03617767     24.77407826 O
atom       7.62279750      5.22800514     24.77258680 O
atom       0.00119153      9.46610609     26.78114276 O
atom       9.14855601      3.65178444     26.77224634 O
atom       3.04790689      9.46610607     26.78114267 O
atom       3.04783641      3.65178438     26.77224633 O
atom       6.09819615      9.46834630     26.77964292 O
atom       6.09819614      3.65465738     26.77024044 O
atom       1.52454918      5.04716356     32.85717351 O
atom       1.52454924     10.85862199     32.91354455 O
atom       4.61018421      5.04941666     32.82754626 O
atom       4.59831610     10.85561522     32.85759307 O
atom       7.58620823      5.04941666     32.82754625 O
atom       7.59807639     10.85561522     32.85759297 O
atom       1.52454921      8.12877823     28.85035727 O
atom       1.52454920      2.31403709     28.84530566 O
atom       4.57086517      8.13398289     28.84633868 O
atom       4.57158379      2.31734028     28.84120894 O
atom       7.62552724      8.13398295     28.84633868 O
atom       7.62480863      2.31734028     28.84120884 O
atom       9.15344464      6.34923002     30.76956048 O
atom       0.00734800      0.53351101     30.79379994 O
atom       3.04294780      6.34922998     30.76956045 O
atom       3.04175042      0.53351102     30.79380002 O
atom       6.09819623      6.35785763     30.70889158 O
atom       6.09819622      0.54362108     30.75006322 O
atom       1.52454919      4.91471540     28.87930896 O
atom       1.52454921     10.72774486     28.89823996 O
atom       4.56444184      4.91515636     28.87292878 O
atom       4.56677648     10.72968176     28.89173872 O
atom       7.63195060      4.91515635     28.87292874 O
atom       7.62961595     10.72968177     28.89173861 O
atom       9.15379480      9.57639018     30.74456575 O
atom       9.15308759      3.76434664     30.72690949 O
atom       3.04259766      9.57639021     30.74456567 O
atom       3.04330484      3.76434664     30.72690953 O
atom       6.09819622      9.58001468     30.72210272 O
atom       6.09819623      3.77064274     30.69971985 O
atom       1.52454927      7.98108673     32.74633232 O
atom       1.52454919      2.18827985     32.74399998 O
atom       4.57828927      7.96217074     32.68003783 O
atom       4.57677125      2.20310529     32.68030383 O
atom       7.61810318      7.96217071     32.68003791 O
atom       7.61962125      2.20310531     32.68030380 O
atom       9.14821802      6.49323380     26.87794591 O
atom       9.14893445      0.67545874     26.87962015 O
atom       3.04817438      6.49323378     26.87794589 O
atom       3.04745799      0.67545876     26.87962012 O
atom       6.09819623      6.49334301     26.88048404 O
atom       6.09819615      0.67574751     26.88090876 O
# 
# What follows is the current estimated Hessian matrix constructed by the BFGS algorithm.
# This is NOT the true Hessian matrix of the system.
# If you do not want this information here, switch it off using the "hessian_to_restart_geometry" keyword.
# 
trust_radius             0.0000479766
hessian_file
