# 
# This is the geometry file that corresponds to the current relaxation step.
# If you do not want this file to be written, set the "write_restart_geometry" flag to .false.
#  aims_uuid : 98D484B5-80D7-4A62-A831-9F115B3CDBC4                                
# 
  set_vacuum_level        54.542068
lattice_vector      9.14729404      0.00000000      0.00000000
lattice_vector      0.00000000     11.62187862      0.00000000
lattice_vector      0.00000000      0.00000000     71.60693882
atom       1.52454905      6.43800420     36.62154282 Ga
atom       1.52454904      3.68428696     36.63092186 Ga
atom       0.00000012     10.91873410     10.06565502 Ga
atom      -0.00000008      5.10777301     10.06573360 Ga
atom       3.04909823     10.91873411     10.06565413 Ga
atom       3.04909822      5.10777306     10.06573370 Ga
atom       6.09819600     10.91873393     10.06565560 Ga
atom       6.09819627      5.10777321     10.06573389 Ga
atom       1.52454904      3.66838578      1.85004937 Ga
atom       1.52455026      9.47932262      1.85003662 Ga
atom       4.57364720      3.66838504      1.85005079 Ga
atom       4.57364720      9.47933071      1.85003060 Ga
atom       7.62274541      3.66838572      1.85004936 Ga
atom       7.62274403      9.47932274      1.85003703 Ga
atom       1.52454910      2.11181935     10.85447509 Ga
atom       1.52454897      7.92280046     10.85445061 Ga
atom       4.57364710      2.11181890     10.85447830 Ga
atom       4.57364777      7.92280289     10.85444937 Ga
atom       7.62274515      2.11181945     10.85447635 Ga
atom       7.62274460      7.92280278     10.85444959 Ga
atom       0.00000018      0.75740503      1.22976627 Ga
atom       0.00000006      6.56834238      1.22977596 Ga
atom       3.04910037      0.75740101      1.22976675 Ga
atom       3.04909867      6.56833894      1.22976991 Ga
atom       6.09819422      0.75740131      1.22976701 Ga
atom       6.09819576      6.56833894      1.22977025 Ga
atom       1.52454933      0.77567017      4.17179958 Ga
atom       1.52454954      6.58659876      4.17181211 Ga
atom       4.57364716      0.77566858      4.17180338 Ga
atom       4.57364706      6.58660028      4.17180912 Ga
atom       7.62274511      0.77567009      4.17179971 Ga
atom       7.62274483      6.58659866      4.17181226 Ga
atom       9.14729390      2.19101954      7.86767024 Ga
atom       0.00000019      8.00196831      7.86765830 Ga
atom       3.04909877      2.19101727      7.86767009 Ga
atom       3.04909870      8.00196880      7.86765661 Ga
atom       6.09819577      2.19101709      7.86767028 Ga
atom       6.09819552      8.00196871      7.86765559 Ga
atom       0.00000022      3.59098680      4.88088577 Ga
atom       0.00000017      9.40191794      4.88086745 Ga
atom       3.04909806      3.59098706      4.88088946 Ga
atom       3.04909910      9.40191645      4.88086763 Ga
atom       6.09819625      3.59098693      4.88088951 Ga
atom       6.09819520      9.40191655      4.88086750 Ga
atom       1.52454968     10.98408343      7.08778536 Ga
atom       1.52454926      5.17313600      7.08783445 Ga
atom       4.57364718     10.98408048      7.08778559 Ga
atom       4.57364715      5.17313788      7.08783337 Ga
atom       7.62274448     10.98408334      7.08778569 Ga
atom       7.62274503      5.17313585      7.08783430 Ga
atom      -0.00002391      7.99242654     21.96350985 Ga
atom       9.14727203      2.18102135     21.96566241 Ga
atom       3.04912218      7.99242652     21.96350971 Ga
atom       3.04912033      2.18102136     21.96566255 Ga
atom       6.09819614      7.99248175     21.96371627 Ga
atom       6.09819613      2.18113504     21.96557471 Ga
atom       1.52454888      0.72933709     13.82741669 Ga
atom       1.52454902      6.54025723     13.82713952 Ga
atom       4.57364281      0.72933780     13.82742227 Ga
atom       4.57364006      6.54026047     13.82713546 Ga
atom       7.62274960      0.72933830     13.82742216 Ga
atom       7.62275224      6.54026011     13.82713521 Ga
atom       1.52454917     10.80693388     22.76191869 Ga
atom       1.52454916      4.99732751     22.76164821 Ga
atom       4.57367242     10.80717888     22.76205668 Ga
atom       4.57375930      4.99768406     22.76164788 Ga
atom       7.62271985     10.80717884     22.76205668 Ga
atom       7.62263300      4.99768402     22.76164806 Ga
atom       9.14729441      9.53294805     13.03016764 Ga
atom       9.14729576      3.72189537     13.03022142 Ga
atom       3.04909768      9.53294795     13.03016757 Ga
atom       3.04909649      3.72189563     13.03022215 Ga
atom       6.09819629      9.53294768     13.03017460 Ga
atom       6.09819614      3.72189531     13.03022344 Ga
atom       1.52454911      9.45466413     16.01185248 Ga
atom       1.52454898      3.64338983     16.01197083 Ga
atom       4.57364348      9.45466371     16.01186509 Ga
atom       4.57364436      3.64339351     16.01196227 Ga
atom       7.62274879      9.45466364     16.01186528 Ga
atom       7.62274810      3.64339334     16.01196196 Ga
atom       9.14724598     10.88879747     19.78086485 Ga
atom      -0.00002620      5.07808966     19.78067937 Ga
atom       3.04914637     10.88879752     19.78086463 Ga
atom       3.04912450      5.07808959     19.78067914 Ga
atom       6.09819611     10.88876641     19.78074305 Ga
atom       6.09819616      5.07808232     19.78049744 Ga
atom       0.00000812      0.64800435     16.80962056 Ga
atom       9.14729392      6.45867015     16.80916687 Ga
atom       3.04909012      0.64800441     16.80962044 Ga
atom       3.04909833      6.45867019     16.80916677 Ga
atom       6.09819612      0.64800234     16.80960268 Ga
atom       6.09819619      6.45868464     16.80912942 Ga
atom       1.52454912      8.07156521     18.98141288 Ga
atom       1.52454916      2.26040555     18.98269084 Ga
atom       4.57366569      8.07155106     18.98142269 Ga
atom       4.57364749      2.26039721     18.98263535 Ga
atom       7.62272658      8.07155113     18.98142285 Ga
atom       7.62274477      2.26039722     18.98263540 Ga
atom      -0.03586212      5.05792994     33.86569559 Ga
atom       9.10800476     10.86860692     33.92737916 Ga
atom       3.08496051      5.05792996     33.86569537 Ga
atom       3.08838773     10.86860692     33.92737918 Ga
atom       6.09819619      5.05660927     33.95170636 Ga
atom       6.09819627     10.86550563     33.95891980 Ga
atom       1.52454920      9.42574182     25.73316094 Ga
atom       1.52454917      3.61399469     25.72552713 Ga
atom       4.57216153      9.42630103     25.73415431 Ga
atom       4.57189394      3.61492934     25.72629928 Ga
atom       7.62423084      9.42630104     25.73415447 Ga
atom       7.62449843      3.61492930     25.72629931 Ga
atom       1.52454928      8.12696044     34.67785326 Ga
atom       1.52454928      2.00413571     34.66960000 Ga
atom       4.59921532      7.96214667     34.58631681 Ga
atom       4.59909924      2.16190374     34.58543428 Ga
atom       7.59717714      7.96214668     34.58631684 Ga
atom       7.59729323      2.16190373     34.58543429 Ga
atom       9.14765794      6.61002800     24.93510309 Ga
atom       9.14782758      0.79584814     24.93603048 Ga
atom       3.04873442      6.61002798     24.93510315 Ga
atom       3.04856478      0.79584810     24.93603066 Ga
atom       6.09819618      6.60972529     24.93620447 Ga
atom       6.09819617      0.79572931     24.93638358 Ga
atom       1.52454917      6.53166228     27.92093420 Ga
atom       1.52454915      0.71284458     27.92471475 Ga
atom       4.57246743      6.53567245     27.92035824 Ga
atom       4.57236538      0.71736241     27.92072879 Ga
atom       7.62392498      6.53567247     27.92035830 Ga
atom       7.62402702      0.71736243     27.92072867 Ga
atom       9.16202794      7.95098349     31.66774990 Ga
atom       9.16173832      2.14851368     31.66612500 Ga
atom       3.03436455      7.95098346     31.66774977 Ga
atom       3.03465415      2.14851369     31.66612496 Ga
atom       6.09819624      7.94615013     31.62367126 Ga
atom       6.09819623      2.15354019     31.62718375 Ga
atom       9.15066339      9.35396851     28.71727842 Ga
atom       9.14975669      3.53695918     28.70557395 Ga
atom       3.04572905      9.35396850     28.71727847 Ga
atom       3.04663574      3.53695918     28.70557398 Ga
atom       6.09819619      9.35395331     28.71065908 Ga
atom       6.09819621      3.53754857     28.69767042 Ga
atom       1.52454918      5.13384176     30.89384924 Ga
atom       1.52454920     10.94140381     30.92938255 Ga
atom       4.57930841      5.14355986     30.87886642 Ga
atom       4.57714468     10.95249137     30.90631508 Ga
atom       7.61708405      5.14355983     30.87886655 Ga
atom       7.61924778     10.95249137     30.90631498 Ga
atom      -0.00000007      0.89676631     10.98019316 O
atom       9.14729297      6.70772121     10.98025079 O
atom       3.04909823      0.89676571     10.98019456 O
atom       3.04909915      6.70772173     10.98025025 O
atom       6.09819618      0.89676645     10.98019449 O
atom       6.09819625      6.70772190     10.98025052 O
atom       1.52455149      2.01473841      0.96183130 O
atom       1.52455095      7.82567224      0.96182754 O
atom       4.57364725      2.01473811      0.96183268 O
atom       4.57364732      7.82567271      0.96182680 O
atom       7.62274310      2.01473851      0.96183104 O
atom       7.62274323      7.82567239      0.96182801 O
atom      -0.00000035      9.30570056     11.02465780 O
atom      -0.00000057      3.49470362     11.02468784 O
atom       3.04909815      9.30570045     11.02465778 O
atom       3.04909913      3.49470383     11.02468910 O
atom       6.09819653      9.30570127     11.02466087 O
atom       6.09819580      3.49470455     11.02469099 O
atom       1.52454969      5.31412286      0.94808027 O
atom       1.52454947     11.12506048      0.94806965 O
atom       4.57364738      5.31411548      0.94806480 O
atom       4.57364737     11.12505938      0.94805275 O
atom       7.62274450      5.31412287      0.94808042 O
atom       7.62274495     11.12506056      0.94807006 O
atom       0.00000020      3.67385990      2.92198401 O
atom       0.00000022      9.48478023      2.92196962 O
atom       3.04909797      3.67385492      2.92198613 O
atom       3.04910138      9.48479049      2.92196860 O
atom       6.09819645      3.67385498      2.92198605 O
atom       6.09819288      9.48479066      2.92196873 O
atom       1.52454895     10.87957172      9.02428695 O
atom       1.52454913      5.06865070      9.02435160 O
atom       4.57364749     10.87956886      9.02428621 O
atom       4.57364736      5.06865468      9.02435087 O
atom       7.62274494     10.87957143      9.02428737 O
atom       7.62274495      5.06865037      9.02435128 O
atom       1.52455035      2.38480580      5.05120264 O
atom       1.52454874      8.19574190      5.05120137 O
atom       4.57364706      2.38480455      5.05120486 O
atom       4.57364713      8.19574045      5.05120208 O
atom       7.62274415      2.38480582      5.05120248 O
atom       7.62274564      8.19574195      5.05120124 O
atom       0.00000000      0.58892625      6.95208700 O
atom       0.00000010      6.39985760      6.95211587 O
atom       3.04910042      0.58892474      6.95208516 O
atom       3.04909836      6.39985747      6.95211422 O
atom       6.09819394      0.58892480      6.95208488 O
atom       6.09819596      6.39985737      6.95211342 O
atom       1.52455042     10.76424814      5.07621986 O
atom       1.52454934      4.95330927      5.07624703 O
atom       4.57364703     10.76424717      5.07622148 O
atom       4.57364704      4.95331094      5.07624600 O
atom       7.62274404     10.76424808      5.07621987 O
atom       7.62274516      4.95330912      5.07624694 O
atom       0.00000016      3.80761277      6.91724285 O
atom       0.00000018      9.61854921      6.91721621 O
atom       3.04909950      3.80761160      6.91724210 O
atom       3.04909966      9.61855020      6.91721490 O
atom       6.09819480      3.80761139      6.91724197 O
atom       6.09819455      9.61855028      6.91721437 O
atom       1.52454906      2.22860369      8.91565069 O
atom       1.52454986      8.03954828      8.91564697 O
atom       4.57364724      2.22860157      8.91565267 O
atom       4.57364751      8.03955070      8.91564628 O
atom       7.62274513      2.22860373      8.91565120 O
atom       7.62274405      8.03954873      8.91564618 O
atom       0.00000018      0.73633181      3.14038775 O
atom       0.00000010      6.54727214      3.14039763 O
atom       3.04910089      0.73633147      3.14038867 O
atom       3.04909796      6.54727195      3.14039394 O
atom       6.09819354      0.73633135      3.14038884 O
atom       6.09819636      6.54727192      3.14039425 O
atom      -0.00018517      9.59068415     22.88449277 O
atom       9.14703699      3.78026078     22.88623227 O
atom       3.04928347      9.59068409     22.88449270 O
atom       3.04935536      3.78026080     22.88623232 O
atom       6.09819612      9.59085694     22.88458588 O
atom       6.09819614      3.78030795     22.88629599 O
atom       1.52454887     10.74953506     12.91616538 O
atom       1.52454906      4.93847700     12.91609599 O
atom       4.57364772     10.74953473     12.91617331 O
atom       4.57364631      4.93847494     12.91610337 O
atom       7.62274477     10.74953528     12.91617296 O
atom       7.62274600      4.93847477     12.91610277 O
atom      -0.00030258      6.38196104     22.93126984 O
atom      -0.00034630      0.56933726     22.93176783 O
atom       3.04940089      6.38196110     22.93126988 O
atom       3.04944459      0.56933728     22.93176793 O
atom       6.09819616      6.38218735     22.93191021 O
atom       6.09819618      0.56965383     22.93228601 O
atom       1.52454876      2.34035557     12.86609120 O
atom       1.52454905      8.15138421     12.86602956 O
atom       4.57364641      2.34035498     12.86609474 O
atom       4.57364669      8.15138704     12.86602986 O
atom       7.62274619      2.34035554     12.86609467 O
atom       7.62274561      8.15138679     12.86603003 O
atom       0.00000471      0.76968243     14.87282785 O
atom       9.14729665      6.58053378     14.87251701 O
atom       3.04909341      0.76968203     14.87282770 O
atom       3.04909552      6.58053356     14.87251685 O
atom       6.09819616      0.76968490     14.87282413 O
atom       6.09819618      6.58053898     14.87250195 O
atom       1.52454909      7.95019425     20.92294080 O
atom       1.52454920      2.13977229     20.92470867 O
atom       4.57373465      7.95016854     20.92294354 O
atom       4.57367069      2.13971889     20.92460761 O
atom       7.62265769      7.95016859     20.92294362 O
atom       7.62272158      2.13971884     20.92460760 O
atom       1.52454912     11.05375188     16.93081902 O
atom       1.52454910      5.24263810     16.93063634 O
atom       4.57363900     11.05375908     16.93081541 O
atom       4.57364802      5.24263503     16.93063417 O
atom       7.62275327     11.05375901     16.93081559 O
atom       7.62274431      5.24263491     16.93063400 O
atom       9.14728105      9.28700959     18.87103571 O
atom       0.00000431      3.47587958     18.87185378 O
atom       3.04911126      9.28700957     18.87103562 O
atom       3.04909402      3.47587954     18.87185356 O
atom       6.09819612      9.28701378     18.87087397 O
atom       6.09819609      3.47586049     18.87172168 O
atom       1.52454916      7.84362989     16.97787641 O
atom       1.52454918      2.03276699     16.97854192 O
atom       4.57362105      7.84361760     16.97785425 O
atom       4.57362377      2.03275863     16.97850877 O
atom       7.62277119      7.84361755     16.97785442 O
atom       7.62276846      2.03275863     16.97850889 O
atom       9.14730632      0.87756835     18.81982588 O
atom       9.14729892      6.68836416     18.81919226 O
atom       3.04908612      0.87756841     18.81982572 O
atom       3.04909338      6.68836418     18.81919221 O
atom       6.09819602      0.87756981     18.81975800 O
atom       6.09819615      6.68838282     18.81909790 O
atom       1.52454922     10.92914508     20.82632080 O
atom       1.52454921      5.11835690     20.82645904 O
atom       4.57372244     10.92917016     20.82630673 O
atom       4.57373272      5.11840379     20.82636520 O
atom       7.62266978     10.92916999     20.82630673 O
atom       7.62265955      5.11840393     20.82636532 O
atom       0.00000042      9.41307585     14.97063628 O
atom       9.14729853      3.60194681     14.97070935 O
atom       3.04909775      9.41307573     14.97063608 O
atom       3.04909380      3.60194730     14.97070981 O
atom       6.09819618      9.41307568     14.97064763 O
atom       6.09819612      3.60194523     14.97071225 O
atom      -0.03964109      6.63198770     34.90302317 O
atom       9.07911188      0.88204285     34.84809430 O
atom       3.08873949      6.63198770     34.90302303 O
atom       3.11728065      0.88204282     34.84809434 O
atom       6.09819622      6.69842110     34.86982625 O
atom       6.09819625      0.89556478     34.85740621 O
atom       1.52454918      7.82518813     24.82289403 O
atom       1.52454918      2.01071208     24.82060283 O
atom       4.57379968      7.82476425     24.82595685 O
atom       4.57360171      2.01024048     24.82418454 O
atom       7.62259268      7.82476429     24.82595691 O
atom       7.62279063      2.01024048     24.82418452 O
atom      -0.03690902      3.48976478     34.91448248 O
atom       9.07648462      9.24292208     34.86460339 O
atom       3.08600739      3.48976480     34.91448232 O
atom       3.11990791      9.24292212     34.86460344 O
atom       6.09819622      3.42171406     34.88350836 O
atom       6.09819624      9.22405922     34.87500423 O
atom       1.52454915     11.03590042     24.77306316 O
atom       1.52454915      5.22763088     24.77179992 O
atom       4.57351117     11.03617610     24.77407221 O
atom       4.57359496      5.22800319     24.77258098 O
atom       7.62288119     11.03617608     24.77407219 O
atom       7.62279741      5.22800319     24.77258104 O
atom       0.00119137      9.46610652     26.78113992 O
atom       9.14855603      3.65178532     26.77224415 O
atom       3.04790703      9.46610652     26.78113991 O
atom       3.04783636      3.65178532     26.77224416 O
atom       6.09819615      9.46834619     26.77963948 O
atom       6.09819618      3.65465796     26.77023863 O
atom       1.52454913      5.04716185     32.85717482 O
atom       1.52454923     10.85862279     32.91354596 O
atom       4.61018537      5.04941641     32.82755113 O
atom       4.59831703     10.85561468     32.85759776 O
atom       7.58620711      5.04941640     32.82755127 O
atom       7.59807547     10.85561469     32.85759771 O
atom       1.52454920      8.12877725     28.85035651 O
atom       1.52454919      2.31403659     28.84530563 O
atom       4.57086537      8.13398229     28.84633698 O
atom       4.57158365      2.31733928     28.84120803 O
atom       7.62552704      8.13398234     28.84633694 O
atom       7.62480877      2.31733928     28.84120795 O
atom       9.15344414      6.34923086     30.76956781 O
atom       0.00734717      0.53351047     30.79380414 O
atom       3.04294829      6.34923084     30.76956773 O
atom       3.04175124      0.53351046     30.79380415 O
atom       6.09819625      6.35785870     30.70889704 O
atom       6.09819623      0.54362191     30.75006861 O
atom       1.52454919      4.91471594     28.87930730 O
atom       1.52454919     10.72774492     28.89823877 O
atom       4.56444222      4.91515658     28.87292855 O
atom       4.56677717     10.72968213     28.89173794 O
atom       7.63195022      4.91515661     28.87292864 O
atom       7.62961525     10.72968216     28.89173787 O
atom       9.15379370      9.57639029     30.74456468 O
atom       9.15308690      3.76434656     30.72690885 O
atom       3.04259875      9.57639030     30.74456465 O
atom       3.04330554      3.76434658     30.72690886 O
atom       6.09819622      9.58001494     30.72210166 O
atom       6.09819623      3.77064222     30.69971976 O
atom       1.52454925      7.98109131     32.74633496 O
atom       1.52454922      2.18828128     32.74399851 O
atom       4.57829044      7.96217175     32.68004154 O
atom       4.57677137      2.20310571     32.68030784 O
atom       7.61810201      7.96217175     32.68004159 O
atom       7.61962110      2.20310574     32.68030785 O
atom       9.14821769      6.49323434     26.87794137 O
atom       9.14893462      0.67545906     26.87961619 O
atom       3.04817470      6.49323428     26.87794140 O
atom       3.04745779      0.67545904     26.87961629 O
atom       6.09819622      6.49334343     26.88047935 O
atom       6.09819616      0.67574783     26.88090451 O
# 
# What follows is the current estimated Hessian matrix constructed by the BFGS algorithm.
# This is NOT the true Hessian matrix of the system.
# If you do not want this information here, switch it off using the "hessian_to_restart_geometry" keyword.
# 
trust_radius             0.0000479766
hessian_file
