# 
# This is the geometry file that corresponds to the current relaxation step.
# If you do not want this file to be written, set the "write_restart_geometry" flag to .false.
#  aims_uuid : BED0CE29-A72C-4318-A93B-473178EE75DC                                
# 
  set_vacuum_level        54.303179
lattice_vector      9.14729404      0.00000000      0.00000000
lattice_vector      0.00000000     11.62187862      0.00000000
lattice_vector      0.00000000      0.00000000     71.60693882
atom       2.16188400      7.94539600     35.91119030 O
  constrain_relaxation x
  constrain_relaxation y
atom       9.19721714     11.07891442     10.12175163 Ga
atom       9.19721531      5.26792579     10.12190298 Ga
atom       3.09902178     11.07891356     10.12174868 Ga
atom       3.09902059      5.26792369     10.12190862 Ga
atom       6.14811740     11.07891510     10.12175675 Ga
atom       6.14811654      5.26792613     10.12189816 Ga
atom       1.58655707      3.90244200      1.96113859 Ga
atom       1.58655772      9.71338191      1.96111957 Ga
atom       4.63565599      3.90244269      1.96113953 Ga
atom       4.63565515      9.71338237      1.96111845 Ga
atom       7.68475366      3.90244153      1.96114045 Ga
atom       7.68475422      9.71338232      1.96111751 Ga
atom       1.57024850      2.27144167     10.90058519 Ga
atom       1.57024435      8.08245870     10.90053603 Ga
atom       4.61934029      2.27144902     10.90058229 Ga
atom       4.61934386      8.08246986     10.90052477 Ga
atom       7.66843980      2.27143912     10.90059094 Ga
atom       7.66843769      8.08246466     10.90052819 Ga
atom       9.20980963      0.99108609      1.36058631 Ga
atom       9.20980933      6.80201803      1.36059614 Ga
atom       3.11161397      0.99108623      1.36058620 Ga
atom       3.11161287      6.80201900      1.36059675 Ga
atom       6.16071199      0.99108695      1.36058691 Ga
atom       6.16071135      6.80201902      1.36059610 Ga
atom       1.58589165      0.99229053      4.27310775 Ga
atom       1.58589061      6.80320426      4.27312405 Ga
atom       4.63498948      0.99229057      4.27310913 Ga
atom       4.63498875      6.80320449      4.27312288 Ga
atom       7.68408782      0.99229031      4.27311075 Ga
atom       7.68408667      6.80320431      4.27312160 Ga
atom       9.19875796      2.39511549      7.93987605 Ga
atom       9.19875970      8.20606976      7.93984219 Ga
atom       3.10056350      2.39511563      7.93987108 Ga
atom       3.10056042      8.20606899      7.93983911 Ga
atom       6.14966307      2.39511456      7.93987289 Ga
atom       6.14966029      8.20607041      7.93983662 Ga
atom       9.20672515      3.80738467      4.96876391 Ga
atom       9.20672258      9.61830576      4.96872991 Ga
atom       3.10852788      3.80738701      4.96876078 Ga
atom       3.10852824      9.61830604      4.96873054 Ga
atom       6.15762551      3.80738473      4.96876430 Ga
atom       6.15762572      9.61830831      4.96872685 Ga
atom       1.57914692     11.18888461      7.16950569 Ga
atom       1.57914652      5.37791505      7.16960606 Ga
atom       4.62824703     11.18888136      7.16950808 Ga
atom       4.62824321      5.37791551      7.16960472 Ga
atom       7.67734375     11.18887937      7.16950967 Ga
atom       7.67734364      5.37791817      7.16960259 Ga
atom      -0.00511885      7.91841497     21.94297624 Ga
atom      -0.00487152      2.10653094     21.94690437 Ga
atom       3.04420234      7.91823959     21.94265124 Ga
atom       3.04406813      2.10633681     21.94766852 Ga
atom       6.09319805      7.91847425     21.94324393 Ga
atom       6.09314902      2.10655009     21.94682056 Ga
atom       1.55490844      0.86613747     13.85897561 Ga
atom       1.55491771      6.67704639     13.85837689 Ga
atom       4.60400168      0.86613390     13.85895505 Ga
atom       4.60400479      6.67704832     13.85838108 Ga
atom       7.65311043      0.86613706     13.85896244 Ga
atom       7.65311036      6.67705802     13.85837996 Ga
atom       1.51063551     10.73083365     22.72629150 Ga
atom       1.51036843      4.92356045     22.72485249 Ga
atom       4.55933375     10.73170881     22.72580970 Ga
atom       4.55979669      4.92334581     22.72530389 Ga
atom       7.60846802     10.73179442     22.72569501 Ga
atom       7.60865327      4.92349547     22.72495675 Ga
atom       0.03590472      9.67267634     13.07364853 Ga
atom       0.03592161      3.86148869     13.07375538 Ga
atom       3.08500678      9.67267001     13.07364591 Ga
atom       3.08501215      3.86147498     13.07376963 Ga
atom       6.13410464      9.67265489     13.07365789 Ga
atom       6.13410773      3.86149484     13.07375740 Ga
atom       1.55238605      9.51839302     16.02941563 Ga
atom       1.55238644      3.70676324     16.02964612 Ga
atom       4.60148299      9.51837661     16.02943441 Ga
atom       4.60147031      3.70674505     16.02964787 Ga
atom       7.65057988      9.51841377     16.02946240 Ga
atom       7.65058519      3.70678117     16.02958630 Ga
atom      -0.00141496     10.91685657     19.77231518 Ga
atom      -0.00141034      5.10638818     19.77149938 Ga
atom       3.04756474     10.91687278     19.77236657 Ga
atom       3.04778006      5.10630162     19.77161830 Ga
atom       6.09669636     10.91682343     19.77194453 Ga
atom       6.09674146      5.10638819     19.77160421 Ga
atom       0.02119482      0.71105951     16.81474247 Ga
atom       0.02118009      6.52146238     16.81374849 Ga
atom       3.07027002      0.71102047     16.81472847 Ga
atom       3.07028245      6.52143778     16.81376714 Ga
atom       6.11934364      0.71106217     16.81468977 Ga
atom       6.11937992      6.52143362     16.81374365 Ga
atom       1.53106556      8.10368432     18.98801314 Ga
atom       1.53117401      2.29212207     18.99057603 Ga
atom       4.58019732      8.10363014     18.98800063 Ga
atom       4.58015407      2.29213319     18.99059306 Ga
atom       7.62924145      8.10367336     18.98803327 Ga
atom       7.62931041      2.29219444     18.99045191 Ga
atom       9.02712803      4.53256259     33.79306043 Ga
atom       9.00480095     10.38428730     33.86603999 Ga
atom       2.98309188      4.52406831     33.71961642 Ga
atom       2.92280684     10.41949207     33.95817277 Ga
atom       6.01425868      4.58590914     33.81337339 Ga
atom       5.97977339     10.40572067     33.87005597 Ga
atom       1.47926826      9.30396300     25.68882815 Ga
atom       1.48217669      3.49191928     25.66739802 Ga
atom       4.52584077      9.30429494     25.68616563 Ga
atom       4.53056458      3.49249376     25.67071740 Ga
atom       7.57856906      9.30413172     25.68506598 Ga
atom       7.58086475      3.49366741     25.67085918 Ga
atom       1.24898131      7.25931506     34.48858058 Ga
atom       1.42184460      1.68683143     34.44871154 Ga
atom       4.49609675      7.40049226     34.43899434 Ga
atom       4.48421298      1.70624512     34.45096665 Ga
atom       7.45437042      7.52474451     34.41866657 Ga
atom       7.52423466      1.68549323     34.44170260 Ga
atom      -0.03407305      6.49479510     24.90603899 Ga
atom      -0.03212799      0.67679226     24.90639160 Ga
atom       3.01492212      6.49508799     24.90542383 Ga
atom       3.01554881      0.67658397     24.90824374 Ga
atom       6.06444139      6.49424098     24.90640442 Ga
atom       6.06414635      0.67683312     24.90750470 Ga
atom       1.47514164      6.28284835     27.86082567 Ga
atom       1.47676572      0.45254675     27.87047906 Ga
atom       4.52518375      6.28564348     27.86157208 Ga
atom       4.52217747      0.45468332     27.86867135 Ga
atom       7.57397170      6.29032406     27.86715023 Ga
atom       7.57593893      0.45965568     27.85753103 Ga
atom       9.05447611      7.63939394     31.55924276 Ga
atom       9.06336924      1.83438091     31.52900640 Ga
atom       2.93635389      7.61865387     31.58904608 Ga
atom       2.96349964      1.82554175     31.52697491 Ga
atom       5.98842066      7.63562659     31.49518350 Ga
atom       6.00829000      1.84115937     31.52998375 Ga
atom      -0.05867012      9.10753940     28.64387132 Ga
atom      -0.05684723      3.28555496     28.61367889 Ga
atom       2.98439728      9.10132460     28.64705424 Ga
atom       2.98895139      3.28260253     28.61355103 Ga
atom       6.03132877      9.11530084     28.63419068 Ga
atom       6.04247888      3.28029993     28.61266662 Ga
atom       1.43802225      4.82377344     30.81350305 Ga
atom       1.44398555     10.61571058     30.88768550 Ga
atom       4.50001670      4.82392830     30.79742985 Ga
atom       4.47629474     10.62193190     30.88306822 Ga
atom       7.54268153      4.83486590     30.80909129 Ga
atom       7.53134914     10.64782004     30.85703053 Ga
atom       0.04651187      1.06438260     11.00306817 O
atom       0.04650779      6.87534156     11.00317534 O
atom       3.09561100      1.06437956     11.00306471 O
atom       3.09561393      6.87534266     11.00317347 O
atom       6.14470394      1.06438491     11.00306686 O
atom       6.14470743      6.87534058     11.00317024 O
atom       1.58694649      2.24502496      1.09570145 O
atom       1.58694639      8.05595823      1.09570050 O
atom       4.63604510      2.24502581      1.09570208 O
atom       4.63604411      8.05595837      1.09570034 O
atom       7.68514249      2.24502534      1.09570211 O
atom       7.68514258      8.05595822      1.09569962 O
atom       0.04322805      9.47127197     11.07370440 O
atom       0.04323049      3.66021905     11.07376267 O
atom       3.09233149      9.47126934     11.07370123 O
atom       3.09232858      3.66021248     11.07375692 O
atom       6.14142221      9.47126696     11.07369918 O
atom       6.14142217      3.66022057     11.07376133 O
atom       1.58695646      5.55144509      1.07996974 O
atom       1.58695747     11.36238887      1.07995802 O
atom       4.63605473      5.55144586      1.07997077 O
atom       4.63605539     11.36238936      1.07995731 O
atom       7.68515307      5.55144494      1.07997088 O
atom       7.68515372     11.36238947      1.07995676 O
atom       9.20910405      3.90791444      3.01996160 O
atom       9.20910351      9.71885383      3.01994088 O
atom       3.11090738      3.90791440      3.01996017 O
atom       3.11090781      9.71885364      3.01994128 O
atom       6.16000595      3.90791443      3.01996226 O
atom       6.16000623      9.71885330      3.01993947 O
atom       1.57459317     11.05627213      9.09195046 O
atom       1.57459362      5.24535394      9.09207808 O
atom       4.62369340     11.05627261      9.09195082 O
atom       4.62368845      5.24535239      9.09207399 O
atom       7.67278807     11.05627761      9.09195403 O
atom       7.67278968      5.24535372      9.09207325 O
atom       1.58433625      2.60900638      5.11920990 O
atom       1.58433433      8.41993636      5.11919517 O
atom       4.63343258      2.60900720      5.11920860 O
atom       4.63343379      8.41993566      5.11919506 O
atom       7.68253217      2.60900742      5.11920978 O
atom       7.68253000      8.41993478      5.11919575 O
atom       9.20127761      0.78794470      7.04975501 O
atom       9.20127893      6.59886393      7.04980772 O
atom       3.10308343      0.78794371      7.04975235 O
atom       3.10307963      6.59886368      7.04980318 O
atom       6.15218203      0.78794452      7.04975014 O
atom       6.15217858      6.59886228      7.04980613 O
atom       1.58272045     10.98500560      5.16646697 O
atom       1.58272034      5.17406296      5.16651003 O
atom       4.63181980     10.98500408      5.16646460 O
atom       4.63181828      5.17406353      5.16650981 O
atom       7.68091839     10.98500350      5.16646547 O
atom       7.68091797      5.17406467      5.16651153 O
atom       9.20292006      4.00668140      6.99538756 O
atom       9.20291765      9.81761175      6.99533619 O
atom       3.10472264      4.00668243      6.99538670 O
atom       3.10472297      9.81761157      6.99533464 O
atom       6.15382036      4.00668084      6.99538581 O
atom       6.15382095      9.81761319      6.99533447 O
atom       1.57571084      2.42150983      8.97375652 O
atom       1.57571000      8.23245917      8.97375118 O
atom       4.62480891      2.42151047      8.97375293 O
atom       4.62480731      8.23245913      8.97374279 O
atom       7.67390596      2.42151408      8.97376015 O
atom       7.67390506      8.23246253      8.97374561 O
atom       9.20857904      0.96290153      3.25568479 O
atom       9.20857908      6.77382735      3.25569532 O
atom       3.11038357      0.96290054      3.25568432 O
atom       3.11038212      6.77382678      3.25569584 O
atom       6.15948215      0.96290015      3.25568538 O
atom       6.15948041      6.77382642      3.25569481 O
atom      -0.01282082      9.52636550     22.82272160 O
atom      -0.01245889      3.71599439     22.82658829 O
atom       3.03694928      9.52594579     22.82263395 O
atom       3.03680047      3.71625735     22.82664643 O
atom       6.08567402      9.52658637     22.82285932 O
atom       6.08605286      3.71595968     22.82648878 O
atom       1.55943739     10.88049681     12.97508728 O
atom       1.55945042      5.06931082     12.97495824 O
atom       4.60854073     10.88049329     12.97508009 O
atom       4.60853809      5.06930855     12.97496900 O
atom       7.65762930     10.88049799     12.97508014 O
atom       7.65763695      5.06931009     12.97498111 O
atom      -0.01900691      6.31225091     22.90102683 O
atom      -0.01919302      0.49799627     22.90195938 O
atom       3.03049842      6.31229094     22.90118385 O
atom       3.03057347      0.49769140     22.90222713 O
atom       6.07932988      6.31221516     22.90126944 O
atom       6.07952965      0.49838544     22.90250566 O
atom       1.56267492      2.47195353     12.90174397 O
atom       1.56267314      8.28308018     12.90160802 O
atom       4.61175974      2.47195861     12.90174477 O
atom       4.61177597      8.28308035     12.90161628 O
atom       7.66086308      2.47195829     12.90174265 O
atom       7.66086059      8.28308536     12.90160900 O
atom       0.02991046      0.88400067     14.89040445 O
atom       0.02992147      6.69480776     14.88975426 O
atom       3.07901356      0.88398334     14.89039681 O
atom       3.07901187      6.69478377     14.88976210 O
atom       6.12810738      0.88400609     14.89038447 O
atom       6.12811397      6.69479208     14.88975693 O
atom       1.51990061      7.91538883     20.91102885 O
atom       1.52018358      2.10538075     20.91457606 O
atom       4.56927671      7.91538189     20.91093200 O
atom       4.56889209      2.10534624     20.91456475 O
atom       7.61803650      7.91550721     20.91102877 O
atom       7.61822990      2.10527142     20.91437830 O
atom       1.54699458     11.12610565     16.91145631 O
atom       1.54698952      5.31481789     16.91105372 O
atom       4.59608855     11.12611139     16.91146252 O
atom       4.59610021      5.31479974     16.91104862 O
atom       7.64517968     11.12615177     16.91148014 O
atom       7.64520948      5.31479773     16.91105207 O
atom       0.00507650      9.30884274     18.89091778 O
atom       0.00518066      3.49737222     18.89256145 O
atom       3.05417581      9.30883266     18.89098522 O
atom       3.05422743      3.49742067     18.89244090 O
atom       6.10326960      9.30882542     18.89062892 O
atom       6.10327221      3.49739019     18.89257888 O
atom       1.54216938      7.91202760     16.98719727 O
atom       1.54215011      2.10118629     16.98848391 O
atom       4.59120848      7.91198732     16.98715781 O
atom       4.59122602      2.10118358     16.98848360 O
atom       7.64036142      7.91201262     16.98717551 O
atom       7.64038399      2.10122073     16.98847274 O
atom       0.00994636      0.90146577     18.81556592 O
atom       0.00987980      6.71215788     18.81413919 O
atom       3.05893172      0.90144841     18.81554538 O
atom       3.05900055      6.71211133     18.81420910 O
atom       6.10802561      0.90154291     18.81545964 O
atom       6.10808802      6.71211617     18.81411680 O
atom       1.52245807     10.92321987     20.80363257 O
atom       1.52253916      5.11261434     20.80336445 O
atom       4.57168523     10.92336930     20.80327482 O
atom       4.57165700      5.11254327     20.80353965 O
atom       7.62055631     10.92337696     20.80320425 O
atom       7.62074597      5.11257778     20.80333482 O
atom       0.02810396      9.50471860     14.99810144 O
atom       0.02813069      3.69337396     14.99822660 O
atom       3.07721824      9.50470203     14.99809067 O
atom       3.07720676      3.69336268     14.99824822 O
atom       6.12631637      9.50471574     14.99811239 O
atom       6.12629918      3.69335713     14.99824304 O
atom       8.91215906      6.14780191     34.70218440 O
atom       9.03971398      0.43798275     34.70586126 O
atom       3.00617869      6.18345677     34.45072017 O
atom       2.94193812      0.45870224     34.77957129 O
atom       6.00254744      6.22517774     34.70192713 O
atom       5.99276760      0.45564019     34.71705765 O
atom       1.48805840      7.69795956     24.80532588 O
atom       1.48996642      1.87970584     24.79818500 O
atom       4.53804218      7.69733193     24.80553430 O
atom       4.53864106      1.87976223     24.80197707 O
atom       7.58656155      7.69756743     24.80459127 O
atom       7.58774559      1.87910963     24.80502361 O
atom       9.05265968      2.93180005     34.72451061 O
atom       8.92161716      8.72268371     34.66213062 O
atom       2.96072497      2.94121152     34.68931237 O
atom       3.16098647      8.74395284     35.07409734 O
atom       6.01300056      2.95859038     34.71888642 O
atom       5.96032219      8.74946955     34.71646261 O
atom       1.49544172     10.90882617     24.72930088 O
atom       1.49534515      5.10518778     24.72590364 O
atom       4.54353653     10.90989006     24.72939352 O
atom       4.54543117      5.10463685     24.72694146 O
atom       7.59330890     10.91028802     24.72960108 O
atom       7.59376421      5.10487825     24.72635819 O
atom      -0.04699900      9.29770944     26.72012377 O
atom      -0.04157900      3.48458272     26.69934540 O
atom       3.00271577      9.29476119     26.72073074 O
atom       3.00445376      3.48303611     26.69880731 O
atom       6.05192781      9.30028772     26.71609708 O
atom       6.05507256      3.48574954     26.70093863 O
atom       1.40443826      4.60931873     32.74243463 O
atom       1.43459897     10.41355397     32.86634904 O
atom       4.53333546      4.57164838     32.70375460 O
atom       4.41729532     10.42024411     32.86169221 O
atom       7.51786366      4.61844111     32.73198277 O
atom       7.49104582     10.47651679     32.78814535 O
atom       1.46347725      7.88692066     28.75101993 O
atom       1.46802432      2.06937023     28.73876678 O
atom       4.51476819      7.88958398     28.75344601 O
atom       4.51529392      2.07085877     28.73585314 O
atom       7.56082716      7.89813978     28.75558462 O
atom       7.57048260      2.06956220     28.73395173 O
atom       9.07198847      6.03252810     30.68576220 O
atom       9.07407146      0.19464111     30.72856810 O
atom       2.96034511      6.01831316     30.70970946 O
atom       2.95812889      0.18769071     30.72305718 O
atom       6.01124876      6.02516447     30.64129061 O
atom       5.99263356      0.20317730     30.72034690 O
atom       1.46406285      4.66319698     28.79644115 O
atom       1.45870275     10.47111314     28.82969403 O
atom       4.50173625      4.66144960     28.79005907 O
atom       4.49668475     10.47334757     28.82732020 O
atom       7.56645180      4.66520496     28.79257836 O
atom       7.55840631     10.48221238     28.82657157 O
atom       9.07471877      9.26850787     30.66324495 O
atom       9.07305848      3.45250023     30.61421448 O
atom       2.95687906      9.24845828     30.66950582 O
atom       2.97348981      3.44717207     30.62016423 O
atom       6.00541201      9.28246102     30.64311768 O
atom       6.03216694      3.44837161     30.59989335 O
atom       1.41471577      7.63463875     32.62654207 O
atom       1.44070081      1.79636140     32.55211720 O
atom       4.48929325      7.64498154     32.55282683 O
atom       4.48428080      1.78080799     32.55281736 O
atom       7.50000520      7.58534518     32.52010466 O
atom       7.53616743      1.81851518     32.54581861 O
atom      -0.04993210      6.29652465     26.82868186 O
atom      -0.04382837      0.46998476     26.82863604 O
atom       3.00092260      6.29418890     26.82719610 O
atom       2.99960430      0.47112898     26.83080350 O
atom       6.05145024      6.29690280     26.82973030 O
atom       6.04741057      0.47058465     26.83113344 O
# 
# What follows is the current estimated Hessian matrix constructed by the BFGS algorithm.
# This is NOT the true Hessian matrix of the system.
# If you do not want this information here, switch it off using the "hessian_to_restart_geometry" keyword.
# 
trust_radius             0.0291281149
hessian_file
