# 
# This is the geometry file that corresponds to the current relaxation step.
# If you do not want this file to be written, set the "write_restart_geometry" flag to .false.
#  aims_uuid : CC7879BF-D82E-4BC3-A250-51BA813A1F33                                
# 
#  set_vacuum_level        54.353555
lattice_vector      9.14729404      0.00000000      0.00000000
lattice_vector      0.00000000     11.62187862      0.00000000
lattice_vector      0.00000000      0.00000000     71.60693882
atom       2.16188400      7.94539600     35.93253058 O
  constrain_relaxation x
  constrain_relaxation y
atom       9.19718084     11.07951289     10.11934366 Ga
atom       9.19715266      5.26848155     10.11963279 Ga
atom       3.09897916     11.07952205     10.11935545 Ga
atom       3.09895890      5.26848262     10.11967287 Ga
atom       6.14808101     11.07951511     10.11938517 Ga
atom       6.14806213      5.26847683     10.11964468 Ga
atom       1.58662987      3.90188719      1.95024983 Ga
atom       1.58663385      9.71284739      1.95021252 Ga
atom       4.63573072      3.90188747      1.95024822 Ga
atom       4.63572741      9.71285244      1.95020854 Ga
atom       7.68482667      3.90189162      1.95025681 Ga
atom       7.68482984      9.71284943      1.95020603 Ga
atom       1.57009205      2.27098488     10.89893015 Ga
atom       1.57007924      8.08204902     10.89884661 Ga
atom       4.61916800      2.27099397     10.89893018 Ga
atom       4.61917539      8.08208944     10.89879160 Ga
atom       7.66827858      2.27094068     10.89898238 Ga
atom       7.66824721      8.08205669     10.89882047 Ga
atom       9.20987199      0.99087739      1.34362105 Ga
atom       9.20987298      6.80180033      1.34371576 Ga
atom       3.11167460      0.99087898      1.34361923 Ga
atom       3.11167494      6.80180258      1.34371679 Ga
atom       6.16077518      0.99088103      1.34362302 Ga
atom       6.16077186      6.80180618      1.34371227 Ga
atom       1.58590608      0.99198382      4.26382357 Ga
atom       1.58590317      6.80285914      4.26393676 Ga
atom       4.63500305      0.99197953      4.26382943 Ga
atom       4.63500383      6.80285735      4.26392975 Ga
atom       7.68410201      0.99198156      4.26382783 Ga
atom       7.68409981      6.80285917      4.26392341 Ga
atom       9.19862350      2.39570904      7.93444543 Ga
atom       9.19862799      8.20667407      7.93432629 Ga
atom       3.10044436      2.39571317      7.93440950 Ga
atom       3.10041830      8.20666820      7.93430575 Ga
atom       6.14954179      2.39569853      7.93441530 Ga
atom       6.14952835      8.20666922      7.93429166 Ga
atom       9.20668436      3.80630777      4.96268151 Ga
atom       9.20667588      9.61723902      4.96260110 Ga
atom       3.10848135      3.80631502      4.96266860 Ga
atom       3.10848976      9.61723758      4.96260916 Ga
atom       6.15757639      3.80630599      4.96268016 Ga
atom       6.15758537      9.61724548      4.96258898 Ga
atom       1.57908941     11.19071990      7.16300995 Ga
atom       1.57908372      5.37969988      7.16321455 Ga
atom       4.62819387     11.19069994      7.16302511 Ga
atom       4.62817977      5.37969582      7.16320538 Ga
atom       7.67729085     11.19069471      7.16302632 Ga
atom       7.67728328      5.37971462      7.16318722 Ga
atom      -0.00490871      7.91759202     21.94529883 Ga
atom      -0.00455983      2.10555332     21.94926361 Ga
atom       3.04446882      7.91747747     21.94529293 Ga
atom       3.04442573      2.10539863     21.95051466 Ga
atom       6.09342688      7.91767208     21.94594691 Ga
atom       6.09344419      2.10563137     21.94966787 Ga
atom       1.55473912      0.86712158     13.85628168 Ga
atom       1.55476041      6.67806452     13.85548430 Ga
atom       4.60384339      0.86712808     13.85626563 Ga
atom       4.60384981      6.67809487     13.85547415 Ga
atom       7.65295353      0.86711415     13.85633472 Ga
atom       7.65301324      6.67808630     13.85555111 Ga
atom       1.51071801     10.72886425     22.72940690 Ga
atom       1.51060109      4.92146959     22.72728720 Ga
atom       4.55958121     10.72977667     22.72882101 Ga
atom       4.56007666      4.92155257     22.72761066 Ga
atom       7.60866725     10.72978876     22.72879286 Ga
atom       7.60901858      4.92157150     22.72736562 Ga
atom       0.03587390      9.67492303     13.07064008 Ga
atom       0.03593795      3.86358728     13.07090209 Ga
atom       3.08497961      9.67489272     13.07066848 Ga
atom       3.08502765      3.86354329     13.07099553 Ga
atom       6.13409591      9.67480771     13.07070967 Ga
atom       6.13411115      3.86363682     13.07095839 Ga
atom       1.55243232      9.51810735     16.02985656 Ga
atom       1.55251180      3.70635299     16.03038714 Ga
atom       4.60155843      9.51806093     16.02989839 Ga
atom       4.60159978      3.70636403     16.03040285 Ga
atom       7.65071145      9.51815278     16.02989847 Ga
atom       7.65072163      3.70640756     16.03031564 Ga
atom      -0.00142559     10.91686346     19.77183101 Ga
atom      -0.00133177      5.10644227     19.77051084 Ga
atom       3.04754640     10.91691509     19.77190474 Ga
atom       3.04783537      5.10635808     19.77064523 Ga
atom       6.09669310     10.91690994     19.77153407 Ga
atom       6.09683339      5.10647364     19.77056327 Ga
atom       0.02113886      0.70958552     16.81544736 Ga
atom       0.02114328      6.51993686     16.81428027 Ga
atom       3.07025696      0.70940541     16.81537449 Ga
atom       3.07025353      6.52002971     16.81419366 Ga
atom       6.11924649      0.70940528     16.81536158 Ga
atom       6.11925654      6.52007098     16.81411091 Ga
atom       1.53125583      8.10489848     18.98707988 Ga
atom       1.53143452      2.29311184     18.98975632 Ga
atom       4.58035313      8.10474028     18.98716015 Ga
atom       4.58033987      2.29311505     18.98985928 Ga
atom       7.62928786      8.10491006     18.98702803 Ga
atom       7.62945805      2.29326571     18.98961626 Ga
atom       9.02684968      4.53238591     33.80313070 Ga
atom       9.00393966     10.38470534     33.87686432 Ga
atom       2.98255256      4.52472356     33.73018347 Ga
atom       2.92142972     10.41784309     33.97061680 Ga
atom       6.01425862      4.58524772     33.82412374 Ga
atom       5.97856236     10.40518450     33.88105403 Ga
atom       1.47939150      9.30364276     25.69113312 Ga
atom       1.48234096      3.49191199     25.66963768 Ga
atom       4.52594366      9.30413655     25.68855113 Ga
atom       4.53071382      3.49262344     25.67293224 Ga
atom       7.57869078      9.30398875     25.68737415 Ga
atom       7.58098094      3.49373414     25.67281089 Ga
atom       1.24944479      7.26020237     34.50585829 Ga
atom       1.42185043      1.68686112     34.46548126 Ga
atom       4.49578277      7.40078261     34.45633724 Ga
atom       4.48365612      1.70510489     34.46761611 Ga
atom       7.45430984      7.52371576     34.43597657 Ga
atom       7.52385314      1.68555889     34.45845689 Ga
atom      -0.03382728      6.49565220     24.90729365 Ga
atom      -0.03194984      0.67786033     24.90815511 Ga
atom       3.01526415      6.49566816     24.90670304 Ga
atom       3.01577329      0.67754328     24.91012353 Ga
atom       6.06466091      6.49523100     24.90773937 Ga
atom       6.06424922      0.67763862     24.90950856 Ga
atom       1.47566325      6.28259909     27.86594316 Ga
atom       1.47709908      0.45178893     27.87622261 Ga
atom       4.52570932      6.28541034     27.86682047 Ga
atom       4.52262151      0.45394118     27.87456244 Ga
atom       7.57457507      6.28994681     27.87228952 Ga
atom       7.57635693      0.45898943     27.86316292 Ga
atom       9.05407169      7.64003745     31.56872752 Ga
atom       9.06375562      1.83567276     31.53772313 Ga
atom       2.93634804      7.61963756     31.59784493 Ga
atom       2.96388792      1.82663854     31.53596351 Ga
atom       5.98830191      7.63576011     31.50482079 Ga
atom       6.00860224      1.84213119     31.53899945 Ga
atom      -0.05864089      9.10617696     28.65028204 Ga
atom      -0.05651582      3.28401534     28.61967322 Ga
atom       2.98433676      9.10003947     28.65347167 Ga
atom       2.98920838      3.28093974     28.61993650 Ga
atom       6.03142463      9.11329077     28.64085352 Ga
atom       6.04271042      3.27879119     28.61895285 Ga
atom       1.43846833      4.82566215     30.81907863 Ga
atom       1.44363284     10.61755980     30.89451551 Ga
atom       4.50032105      4.82558417     30.80323663 Ga
atom       4.47592395     10.62341381     30.88943672 Ga
atom       7.54332806      4.83633701     30.81475558 Ga
atom       7.53127815     10.64878571     30.86358122 Ga
atom       0.04633976      1.06386708     11.00557206 O
atom       0.04630757      6.87482498     11.00581440 O
atom       3.09542280      1.06386149     11.00561373 O
atom       3.09543009      6.87481978     11.00585195 O
atom       6.14450390      1.06387770     11.00562182 O
atom       6.14449722      6.87481536     11.00584046 O
atom       1.58703821      2.24478038      1.08173811 O
atom       1.58703958      8.05569685      1.08180854 O
atom       4.63613436      2.24478253      1.08173987 O
atom       4.63613235      8.05570127      1.08180909 O
atom       7.68523219      2.24478270      1.08174437 O
atom       7.68523139      8.05569779      1.08180597 O
atom       0.04308389      9.46980173     11.06993685 O
atom       0.04310160      3.65870394     11.07010224 O
atom       3.09220428      9.46979464     11.06991535 O
atom       3.09220263      3.65869098     11.07011789 O
atom       6.14130579      9.46978556     11.06991456 O
atom       6.14131600      3.65872042     11.07016837 O
atom       1.58706113      5.55087449      1.06697816 O
atom       1.58706121     11.36181693      1.06689092 O
atom       4.63615657      5.55087576      1.06697627 O
atom       4.63615668     11.36182102      1.06689026 O
atom       7.68525599      5.55087531      1.06698175 O
atom       7.68525549     11.36181847      1.06688896 O
atom       9.20919390      3.90606818      3.01243949 O
atom       9.20919399      9.71704387      3.01239277 O
atom       3.11099587      3.90606675      3.01243766 O
atom       3.11099771      9.71704340      3.01240152 O
atom       6.16009073      3.90607295      3.01243939 O
atom       6.16009450      9.71704825      3.01238887 O
atom       1.57453598     11.05888783      9.08649094 O
atom       1.57452504      5.24799893      9.08672911 O
atom       4.62363696     11.05888744      9.08650766 O
atom       4.62360948      5.24796324      9.08673535 O
atom       7.67272019     11.05888119      9.08651271 O
atom       7.67270380      5.24797658      9.08672009 O
atom       1.58425363      2.60743108      5.11619963 O
atom       1.58424737      8.41838798      5.11617738 O
atom       4.63334204      2.60742886      5.11620155 O
atom       4.63335623      8.41837949      5.11618247 O
atom       7.68244614      2.60743941      5.11618662 O
atom       7.68244395      8.41838360      5.11617548 O
atom       9.20127059      0.78928996      7.03997032 O
atom       9.20127566      6.60017957      7.04000080 O
atom       3.10309727      0.78928499      7.03997481 O
atom       3.10307562      6.60017694      7.03999585 O
atom       6.15218536      0.78928377      7.03996071 O
atom       6.15216823      6.60017015      7.03999773 O
atom       1.58272364     10.98345439      5.15841856 O
atom       1.58271352      5.17245857      5.15851381 O
atom       4.63182620     10.98344240      5.15841049 O
atom       4.63181737      5.17245741      5.15851009 O
atom       7.68092077     10.98344388      5.15840063 O
atom       7.68091476      5.17246718      5.15851634 O
atom       9.20283437      4.00889650      6.99040935 O
atom       9.20282936      9.81985084      6.99028479 O
atom       3.10464253      4.00889880      6.99039905 O
atom       3.10464808      9.81984456      6.99027459 O
atom       6.15373557      4.00888775      6.99039779 O
atom       6.15374844      9.81985079      6.99028272 O
atom       1.57558190      2.42013626      8.97131510 O
atom       1.57556541      8.23105962      8.97125641 O
atom       4.62467649      2.42013810      8.97134224 O
atom       4.62466198      8.23103668      8.97123843 O
atom       7.67375694      2.42012245      8.97134120 O
atom       7.67375481      8.23103332      8.97124113 O
atom       9.20860704      0.96334485      3.24283267 O
atom       9.20860635      6.77425548      3.24293261 O
atom       3.11041135      0.96334418      3.24283418 O
atom       3.11040822      6.77425192      3.24293843 O
atom       6.15950593      0.96335141      3.24283566 O
atom       6.15950679      6.77425666      3.24293072 O
atom      -0.01279210      9.52443913     22.82997704 O
atom      -0.01225486      3.71400726     22.83383681 O
atom       3.03707860      9.52419462     22.82993889 O
atom       3.03712849      3.71442276     22.83385108 O
atom       6.08573300      9.52476843     22.83023366 O
atom       6.08627764      3.71413915     22.83376655 O
atom       1.55943132     10.88256669     12.96770395 O
atom       1.55947039      5.07128008     12.96770210 O
atom       4.60852665     10.88253498     12.96776565 O
atom       4.60855662      5.07128384     12.96778163 O
atom       7.65759404     10.88255946     12.96773732 O
atom       7.65768924      5.07127438     12.96779564 O
atom      -0.01874993      6.30913921     22.90138580 O
atom      -0.01905602      0.49505905     22.90294789 O
atom       3.03090090      6.30926590     22.90154877 O
atom       3.03074314      0.49486717     22.90342211 O
atom       6.07949017      6.30917223     22.90177249 O
atom       6.07946726      0.49551032     22.90346374 O
atom       1.56256959      2.47505649     12.90085840 O
atom       1.56259708      8.28627822     12.90058526 O
atom       4.61165161      2.47504236     12.90088202 O
atom       4.61170630      8.28630102     12.90061067 O
atom       7.66082243      2.47503266     12.90087121 O
atom       7.66076657      8.28627297     12.90061043 O
atom       0.02980386      0.88212259     14.89061340 O
atom       0.02982833      6.69315614     14.88983788 O
atom       3.07886988      0.88215348     14.89065992 O
atom       3.07888159      6.69315577     14.88983351 O
atom       6.12797706      0.88217099     14.89068400 O
atom       6.12799498      6.69319649     14.88983763 O
atom       1.52019627      7.91728432     20.91064264 O
atom       1.52060970      2.10741431     20.91432758 O
atom       4.56955653      7.91755836     20.91060597 O
atom       4.56921791      2.10740558     20.91438099 O
atom       7.61819206      7.91745349     20.91066127 O
atom       7.61847259      2.10735448     20.91410162 O
atom       1.54695200     11.12467844     16.91675988 O
atom       1.54694875      5.31352852     16.91625458 O
atom       4.59602239     11.12457605     16.91678677 O
atom       4.59604881      5.31347050     16.91626560 O
atom       7.64514677     11.12475631     16.91676851 O
atom       7.64515101      5.31355996     16.91619032 O
atom       0.00527131      9.31007238     18.88564638 O
atom       0.00538837      3.49851122     18.88694845 O
atom       3.05439364      9.31012961     18.88559618 O
atom       3.05442824      3.49863109     18.88664747 O
atom       6.10343210      9.31021702     18.88512664 O
atom       6.10351410      3.49864724     18.88675033 O
atom       1.54215720      7.90961664     16.98565514 O
atom       1.54212234      2.09852198     16.98700401 O
atom       4.59121833      7.90943079     16.98550173 O
atom       4.59127232      2.09839731     16.98694609 O
atom       7.64046806      7.90963937     16.98561806 O
atom       7.64059916      2.09857869     16.98697806 O
atom       0.01012778      0.90373472     18.81704517 O
atom       0.01001809      6.71447732     18.81536294 O
atom       3.05907133      0.90379829     18.81696508 O
atom       3.05914346      6.71454259     18.81546495 O
atom       6.10822814      0.90395083     18.81687103 O
atom       6.10820835      6.71463045     18.81532258 O
atom       1.52250355     10.92085011     20.80613017 O
atom       1.52270400      5.10987451     20.80530215 O
atom       4.57168072     10.92110370     20.80570693 O
atom       4.57181781      5.11000209     20.80538848 O
atom       7.62051453     10.92103044     20.80566883 O
atom       7.62083160      5.10993725     20.80522185 O
atom       0.02818226      9.50738695     14.99556779 O
atom       0.02826087      3.69597640     14.99596927 O
atom       3.07726592      9.50737473     14.99561819 O
atom       3.07731891      3.69599491     14.99597119 O
atom       6.12640363      9.50740610     14.99566381 O
atom       6.12639366      3.69597064     14.99595704 O
atom       8.91089703      6.14706035     34.71592627 O
atom       9.03925923      0.43832368     34.71889013 O
atom       3.00478386      6.18529442     34.46307368 O
atom       2.94140946      0.45805139     34.79361701 O
atom       6.00245918      6.22401181     34.71593354 O
atom       5.99216967      0.45491852     34.73056411 O
atom       1.48851877      7.69913027     24.80206310 O
atom       1.49031337      1.88077194     24.79556931 O
atom       4.53841026      7.69871006     24.80220327 O
atom       4.53889946      1.88091817     24.79942912 O
atom       7.58689645      7.69884404     24.80124297 O
atom       7.58796021      1.88014274     24.80234143 O
atom       9.05285459      2.93249261     34.73751413 O
atom       8.92302138      8.72230162     34.67401752 O
atom       2.96056349      2.94121730     34.70166479 O
atom       3.15813751      8.74362131     35.08793119 O
atom       6.01318828      2.95808018     34.73110909 O
atom       5.95955066      8.74848855     34.72987624 O
atom       1.49560905     10.91076214     24.73310583 O
atom       1.49581266      5.10729610     24.72935296 O
atom       4.54388306     10.91194864     24.73339358 O
atom       4.54569327      5.10689330     24.73058736 O
atom       7.59347581     10.91230862     24.73340685 O
atom       7.59424375      5.10710803     24.72975771 O
atom      -0.04695916      9.29519610     26.72542304 O
atom      -0.04150154      3.48235503     26.70433767 O
atom       3.00276682      9.29258719     26.72620544 O
atom       3.00457633      3.48126504     26.70408389 O
atom       6.05202601      9.29813097     26.72156840 O
atom       6.05534049      3.48355056     26.70606924 O
atom       1.40420766      4.61173113     32.74962181 O
atom       1.43421811     10.41619686     32.87377330 O
atom       4.53307419      4.57352882     32.71134125 O
atom       4.41590421     10.42164378     32.87037507 O
atom       7.51752819      4.62003087     32.73906333 O
atom       7.49023870     10.47774936     32.79611331 O
atom       1.46340911      7.88544849     28.76117294 O
atom       1.46799140      2.06824571     28.74852943 O
atom       4.51482194      7.88813599     28.76353837 O
atom       4.51545075      2.06964922     28.74570762 O
atom       7.56092042      7.89663157     28.76555751 O
atom       7.57076521      2.06805818     28.74412734 O
atom       9.07234786      6.03472529     30.68849220 O
atom       9.07387888      0.19664993     30.73159661 O
atom       2.96105483      6.02052465     30.71269333 O
atom       2.95792034      0.19021433     30.72495071 O
atom       6.01157847      6.02716749     30.64376398 O
atom       5.99241844      0.20502731     30.72339963 O
atom       1.46418465      4.66129547     28.80111999 O
atom       1.45838206     10.46865297     28.83471041 O
atom       4.50187662      4.65946371     28.79486653 O
atom       4.49668107     10.47099061     28.83257615 O
atom       7.56666483      4.66319126     28.79708042 O
atom       7.55847028     10.47985825     28.83168906 O
atom       9.07445717      9.27054689     30.67179928 O
atom       9.07306120      3.45490364     30.62193601 O
atom       2.95721163      9.25064776     30.67761201 O
atom       2.97339213      3.44953596     30.62788702 O
atom       6.00573447      9.28414665     30.65156248 O
atom       6.03224498      3.45044882     30.60743701 O
atom       1.41485439      7.63431232     32.63866656 O
atom       1.44086952      1.79600406     32.56449176 O
atom       4.48919408      7.64485906     32.56615019 O
atom       4.48440755      1.77943167     32.56523726 O
atom       7.49975488      7.58397129     32.53319205 O
atom       7.53638162      1.81837046     32.55833426 O
atom      -0.04942361      6.29852156     26.83078616 O
atom      -0.04346070      0.47173723     26.83137976 O
atom       3.00148344      6.29665006     26.82955214 O
atom       2.99995206      0.47303765     26.83375959 O
atom       6.05192212      6.29899110     26.83184895 O
atom       6.04771180      0.47250510     26.83398697 O
# 
# What follows is the current estimated Hessian matrix constructed by the BFGS algorithm.
# This is NOT the true Hessian matrix of the system.
# If you do not want this information here, switch it off using the "hessian_to_restart_geometry" keyword.
# 
#trust_radius             1.0429036544
#hessian_file
