#=======================================================
# FHI-aims file: ./geometry.in
# Created using the Atomic Simulation Environment (ASE)
# Sat May  4 10:15:27 2019
#=======================================================
lattice_vector 0.0000000000000000 2.8540000000000001 2.8540000000000001 
lattice_vector 2.8540000000000001 0.0000000000000000 2.8540000000000001 
lattice_vector 2.8540000000000001 2.8540000000000001 0.0000000000000000 
atom_frac 0.0000000000000000 0.0000000000000000 -0.0000000000000000 Ce
atom_frac 0.2500000000000001 0.2500000000000001 0.2500000000000000 O
atom_frac 0.7500000000000002 0.7500000000000002 0.7499999999999999 O
symmetry_n_params 1 1 0
symmetry_params a
symmetry_lv 0 , (1.0/2.0)*a , (1.0/2.0)*a
symmetry_lv (1.0/2.0)*a , 0 , (1.0/2.0)*a
symmetry_lv (1.0/2.0)*a , (1.0/2.0)*a , 0
symmetry_frac 0 , 0.0 , 0.0
symmetry_frac (1.0/4.0) , (1.0/4.0) , (1.0/4.0)
symmetry_frac (3.0/4.0) , (3.0/4.0) , (3.0/4.0)
