basis_threshold 1E-7
#=====================================================
#FHI-aims file: /mnt/lxfs2/scratch/bieniek/binaries/monomers_unrelaxed/pbe/really_tight/minimal/atomic_zora/8/14_Si/control.in
#Created using the Atomic Simulation Environment (ASE)
#
#List of parameters used to initialize the calculator:
#=====================================================
charge_mix_param                   0.05
sc_iter_limit                      800
relativistic                       atomic_zora scalar
compute_analytical_stress          .true.
sc_accuracy_rho                    1e-05
charge                             0.0
dos_kgrid_factors                  3 3 3
xc                                 pbe
override_relativity                .true.
k_grid                             10 10 10
preconditioner                     kerker 1.5
n_max_pulay                        10
occupation_type                    fermi 0.1
spin                               none
compute_forces                     .true.
override_illconditioning           .true.
mixer                              pulay
sc_accuracy_etot                   1e-05
sc_accuracy_eev                    1e-05
sc_accuracy_forces                 0.0001
output                             atom_proj_dos -20 10 1000 0.01
output                             dos -20 10 1000 0.01
output                             quadrupole
output                             hirshfeld
output                             band 0.0 0.0 0.0 0.5 0.0 0.5 20 \Gamma X
output                             band 0.5 0.0 0.5 0.5 0.25 0.75 20 X W
output                             band 0.5 0.25 0.75 0.375 0.375 0.75 20 W K
output                             band 0.375 0.375 0.75 0.0 0.0 0.0 20 K \Gamma
output                             band 0.0 0.0 0.0 0.5 0.5 0.5 20 \Gamma L
output                             band 0.5 0.5 0.5 0.625 0.25 0.625 20 L U
output                             band 0.625 0.25 0.625 0.5 0.25 0.75 20 U W
output                             band 0.5 0.25 0.75 0.5 0.5 0.5 20 W L
output                             band 0.5 0.5 0.5 0.375 0.375 0.75 20 L K
output                             band 0.625 0.25 0.625 0.5 0.0 0.5 20 U X
#=======================================================

################################################################################
#
#  FHI-aims code project
#  VB, Fritz-Haber Institut, 2007
#
#  Suggested "safe" defaults for Si atom (to be pasted into control.in file)
#
################################################################################
  species        Si
#     global species definitions
    nucleus             14
    mass                28.0855
#
    l_hartree           8
#
    cut_pot             4.0          2.0  1.0
    basis_dep_cutoff    0.d0
#
    radial_base         42 7.0
    radial_multiplier   2
    angular_grids       specified
      division   0.5546  110
      division   0.6662  194
      division   0.7933  302
      division   0.9076  434
      division   1.0349  590
#      division   1.1770  770
#      division   2.4695  974
#      outer_grid   974
      outer_grid 590
################################################################################
#
#  Definition of "minimal" basis
#
################################################################################
#     valence basis states
    valence      3  s   2.
    valence      3  p   2.
#     ion occupancy
    ion_occ      3  s   1.
    ion_occ      3  p   1.
################################################################################
#
#  Suggested additional basis functions. For production calculations, 
#  uncomment them one after another (the most important basis functions are
#  listed first).
#
#  Constructed for dimers: 1.75 A, 2.0 A, 2.25 A, 2.75 A, 3.75 A
#
################################################################################
#  "First tier" - improvements: -571.96 meV to -37.03 meV
#     hydro 3 d 4.2
#     hydro 2 p 1.4
#     hydro 4 f 6.2
#     ionic 3 s auto
#  "Second tier" - improvements: -16.76 meV to -3.03 meV
#     hydro 3 d 9
#     hydro 5 g 9.4
#     hydro 4 p 4
#     hydro 1 s 0.65
#  "Third tier" - improvements: -3.89 meV to -0.60 meV
#     ionic 3 d auto
#     hydro 3 s 2.6
#     hydro 4 f 8.4
#     hydro 3 d 3.4
#     hydro 3 p 7.8
#  "Fourth tier" - improvements: -0.33 meV to -0.11 meV
#     hydro 2 p 1.6
#     hydro 5 g 10.8
#     hydro 5 f 11.2
#     hydro 3 d 1
#     hydro 4 s 4.5
#  Further basis functions that fell out of the optimization - noise
#  level... < -0.08 meV
#     hydro 4 d 6.6
#     hydro 5 g 16.4
#     hydro 4 d 9
       hydro 3 d 4.2
       hydro 2 p 1.4
       hydro 4 f 6.2
       ionic 3 s auto
       hydro 3 d 9
       hydro 5 g 9.4
       hydro 4 p 4
       hydro 1 s 0.65
       ionic 3 d auto
       hydro 3 s 2.6
