XYZ file                                
   1.00000000000000     
    27.1567363738999994    0.0000000000000000    0.0000000000000000
     0.0000000000000000   27.1567363738999994    0.0000000000000000
     0.0000000000000000    0.0000000000000000   27.1567363738999994
   H    C    O    N    Al
    59    71    15    15    15
Direct
  0.5555040836386596  0.2632283568459357  0.5717249512692533
  0.4336330294577593  0.5149935483941803  0.6050945520387714
  0.5312051773225761  0.3301903903525769  0.6263033151636890
  0.4083999097424424  0.3590889275035352  0.5921054482619610
  0.6839396357601686  0.7853795289811956  0.6975525617727101
  0.3058191239791910  0.6615520119813283  0.6797224283084589
  0.4139027595673426  0.7891207337269037  0.5834111571384213
  0.2189853787333433  0.7682790756127886  0.5747326016317800
  0.5926212072547656  0.3180869519837444  0.8536262512118213
  0.3806222677381186  0.7029932737185618  0.8134384155317989
  0.5448526144040144  0.7125625610372666  0.6320495605464771
  0.7428782582427331  0.3679088354152285  0.7615525722331071
  0.2666387557880228  0.6085224151559814  0.7522675395057448
  0.4029993712911022  0.6770652532706904  0.6391825079792213
  0.6969806552009388  0.2062988579284664  0.8387817144291390
  0.3944383263702775  0.5462697148416424  0.6885241866165686
  0.7680064439939471  0.2433408498729293  0.8784211873826919
  0.3685995042327832  0.4675773084133823  0.6731064319484332
  0.7130042314513716  0.2190430164398194  0.6156598925513279
  0.2729270458332138  0.7293642759310472  0.6301590204133376
  0.3950658142526748  0.2740359902433767  0.6322763562083438
  0.7923955917501786  0.6854400038618067  0.6109376549733554
  0.6298042535935195  0.3528724312841192  0.6305353641631584
  0.3594691157506773  0.7899419069228628  0.7983353138058433
  0.5624021887872601  0.7788183093063878  0.6912064552440285
  0.5868970751698299  0.3663548827082863  0.6982573270926835
  0.4371691942117977  0.5855932831930417  0.7498821020176791
  0.3121640682179887  0.7895917296457000  0.5610955357523935
  0.5744552016196351  0.2430908382033934  0.8221909403833649
  0.4390489756883724  0.6504335999658721  0.7586998939534624
  0.4919750988502614  0.3736370801813962  0.7304848432400632
  0.4236716031922683  0.6263496875621541  0.7000831365462687
  0.7811217307904244  0.2637030184113982  0.7448223233274760
  0.2179086655525921  0.5408828854382151  0.7471748590342884
  0.3348829448350230  0.6166658997395231  0.6319747567124665
  0.6565176844716518  0.7591550350215854  0.7594952583412322
  0.3886637091688314  0.6314740180812564  0.8330441713438930
  0.4890421330879775  0.6254228353567370  0.5554581880648044
  0.6279572248375800  0.7739461660496119  0.8161460161060248
  0.3254863917851054  0.6147488951597637  0.8259955644581254
  0.5388098955094947  0.6616654396022881  0.5768514275543026
  0.5918199420106518  0.7697505951079791  0.7624061703857308
  0.3724813759182695  0.5701231360363366  0.8176280856170948
  0.4906373023823889  0.6443264484394007  0.6180832386078592
  0.5903006196063671  0.5778883695716459  0.7014764547447072
  0.6976025700646176  0.4735080599875943  0.6486951112774690
  0.7637485265694082  0.5259473323800137  0.7853407859972990
  0.6334987282762867  0.4552919566536389  0.7289927005745298
  0.3214144706795068  0.4712938666407922  0.8508129715913242
  0.5416106581620070  0.5662552118294784  0.6250096559582445
  0.6491265296864697  0.4624643921892755  0.5722124576403331
  0.7137671709193043  0.6061613559654688  0.6870465874512064
  0.7383909225289713  0.5499148964878131  0.6269483566281338
  0.7543810605934738  0.5799689292980403  0.7294946312856609
  0.1969654261968259  0.4264298677336598  0.8701425790880677
  0.6286505460725280  0.5606805085987361  0.7771479487602804
  0.6877784728930436  0.5856592059156895  0.7885183096073476
  0.6500640511415341  0.6122227907319129  0.7421124577535423
  0.7168585061903840  0.3896297514295313  0.8480718135974072
  0.5509545802926397  0.2996764182908791  0.5556599497906802
  0.4182313382809824  0.4842210412160668  0.5844366550339188
  0.5371167659902909  0.3378360271530099  0.5874336958004989
  0.4036437869071463  0.3961342573306794  0.5771740078849916
  0.4232897460406093  0.4365135431145930  0.6019195914391986
  0.5307496786267976  0.3845757841887618  0.5678403973763437
  0.4988312125023810  0.4197508692891176  0.6421379447038333
  0.6697041392455105  0.2265858799186873  0.6824583411212899
  0.3201808929572536  0.6891252994592563  0.7049993872754357
  0.4467675387776211  0.7866097688575877  0.6065667271723925
  0.2246727496262722  0.7349474429917890  0.5529243946055047
  0.6243054270797543  0.3018975853769916  0.6914325952674645
  0.3605535626295051  0.7119221687323645  0.7799329161789927
  0.5194265246304397  0.7433059215613369  0.6339540481582375
  0.6389703154712336  0.2562400698740745  0.7118864655467334
  0.3463335037209916  0.6743097901336768  0.7470269203076043
  0.4773592054846105  0.7445884346925311  0.6037600040466629
  0.6340028643702382  0.2441553771672105  0.7676372527972575
  0.3646273314902757  0.6207507252676194  0.7556976675858493
  0.4692934453364046  0.7026489972977430  0.5657639503311742
  0.6837548017679325  0.2628656625639607  0.7874120474046151
  0.3350287973758270  0.5780508518353145  0.7312304973466937
  0.4164774417764718  0.6823015212832431  0.5608211755753345
  0.7408091426013570  0.3279106617008125  0.7649270892125557
  0.2850791216002122  0.5754657983873059  0.7381936907656836
  0.3906602859390773  0.6658639907989468  0.6026141643341276
  0.7126916050781915  0.2391179502055678  0.8217196464537935
  0.3603934049456043  0.5368824005307431  0.7079353332559180
  0.7576107978782645  0.2563512325321540  0.8417933583127777
  0.3458378911107403  0.4884446859287692  0.6988613605366893
  0.6865846514576006  0.2411583364006233  0.6362922787587664
  0.3122274279669739  0.7390657663227032  0.6939530968497465
  0.4566336274088556  0.2320688664952044  0.6402430534219263
  0.2140481025027228  0.6891757249957138  0.5737446546402651
  0.6403540968830583  0.3170408010542403  0.6447988748688260
  0.3499201238015104  0.7617481350918780  0.7713111043096958
  0.5300205350092639  0.7809441089682139  0.6676765084123417
  0.5872395038723042  0.2683394551417351  0.7934281826187473
  0.4193087816304768  0.6205698847596750  0.7399023771247926
  0.7876535058004137  0.2988975942190635  0.7643849849700786
  0.2537443637970682  0.5324076414018535  0.7308009862729250
  0.3511919975099076  0.6327975392328824  0.5989840626664389
  0.7911966442937626  0.2875044941889229  0.8193894624755416
  0.2686632871692254  0.4811437130036680  0.7482272982746423
  0.3354898095102570  0.6181745529309737  0.5525119900792106
  0.6721790433015329  0.2871553897947337  0.6183235645406313
  0.3267693221608425  0.7749412059773846  0.7278084755057606
  0.4981673061790346  0.2272836864127825  0.6716691255481848
  0.2240504324314827  0.6470133662264033  0.5462310314009855
  0.6936631798696027  0.3474862575559499  0.5555300712606766
  0.2805171012862004  0.2412971556220498  0.6777634620590689
  0.6587837934456005  0.6829876303849929  0.6154146194482450
  0.2612110078447287  0.5729448795236607  0.5767645835768960
  0.6277391910533083  0.7817708253928544  0.7765071392108354
  0.3628078997176303  0.6089252829693095  0.8115854859195224
  0.4990271329888003  0.6558219194231683  0.5802056193373559
  0.6046701669859686  0.5537397265251869  0.6728769540791362
  0.6643695235168252  0.4953258335536930  0.6430990695842524
  0.6498298644958140  0.5294938087560368  0.6795368194440314
  0.6844139099079385  0.5414985418179015  0.7220975160640677
  0.6977899670673366  0.4956023991135865  0.7524778246785075
  0.7385131716812339  0.4948898553920742  0.7841649651416418
  0.6645333767110628  0.4558770656586830  0.7545520663408496
  0.6698742508869273  0.4181074500142330  0.7895574569706909
  0.5766797065884290  0.5474097728579537  0.6300526261485686
  0.6373044252340136  0.4889742135863671  0.5999017954034187
  0.7293044328785712  0.5706379413431151  0.6990789174963581
  0.7479712366881515  0.4557345807537700  0.8172621726862062
  0.7108798623001675  0.4194610715059213  0.8215476274403315
  0.5945323705582410  0.5165732502924243  0.5934525132220614
  0.6609648466172544  0.5772874951228388  0.7594566345174627
  0.5151310563019251  0.4257983565401204  0.5954449772742620
  0.4498691558806627  0.4287891089958578  0.6470484137367833
  0.5245250463413598  0.4094587564537733  0.6777969598618796
  0.6950506567917643  0.3006864786170667  0.5738875269996910
  0.3181780874562108  0.2329272329674836  0.7158979773683285
  0.5007364749863399  0.2637199759350750  0.7082412839005627
  0.2210349887539849  0.6014424562333502  0.5724661350301758
  0.2336008995947338  0.3071787953510281  0.8472347855507749
  0.6210709214384806  0.6896025538620520  0.5944234728630491
  0.2994692921501496  0.5801773667156382  0.5457788705878812
  0.6639037728159352  0.3799508214071210  0.5642335415063542
  0.2649058699451814  0.2866192459886605  0.6758637428406189
  0.6966024041158860  0.6764724254441674  0.6364591121712095
  0.2610957622586270  0.5369516015191920  0.6054849028472802
  0.5651193857281598  0.5106248259392174  0.5505397319896304
  0.3090890050052977  0.4593605399133764  0.7202917337592751
  0.2924551963700992  0.7550396919088769  0.6492286920730592
  0.5934391021849308  0.3188827037892068  0.8160827159739199
  0.7574409842476229  0.5489342808632642  0.6592774391037324
  0.7926636934432452  0.4530880749288286  0.8435930013673456
  0.6954932808918954  0.3106530606567333  0.7715842723700135
  0.4817415475805618  0.3437590002888626  0.7521302699918877
  0.2668103575569489  0.2071686089057110  0.6481173634662483
  0.5964103341065083  0.3369581401465709  0.7201263904743485
  0.4285845756556412  0.2743861675205395  0.6491830348930918
  0.3416650891422108  0.2853201329614450  0.8226257562551069
  0.2956551611524532  0.3930930197216114  0.8129247426880539
  0.5437548756481618  0.6193875074460706  0.8434022069018852
  0.3918496668188496  0.4146409034563590  0.7753222584668151
  0.5325654148890990  0.5987256169201061  0.8095442652722085
  0.5401002168690852  0.3032755255861872  0.7521114349230160
  0.4399614929974760  0.2979773879153313  0.7138391733121239
  0.3290092646989464  0.3960628211325599  0.7501627206787376
  0.2221039533600546  0.5150042176070002  0.6641206741371732
  0.2613969445099613  0.4525578021890624  0.8134891986959119
  0.2441511452153833  0.4291768967938836  0.6932067274877980
  0.2529323697232471  0.3341916203422173  0.7224554419527394
  0.2894146740531625  0.3270854354036814  0.8218945264885136
  0.3539544642130963  0.2921177148747631  0.7553801536592388
  0.6369542479568508  0.3553197086036377  0.7794417142975760
  0.4407159984254463  0.3717454373752602  0.8036817312103892
  0.4264554381479542  0.4752335846366122  0.7650777101466630
  0.4354064464596021  0.3834953904110989  0.9000000357734450
  0.3570854961909191  0.4155467450737476  0.8441339135299017
  0.3872261047209875  0.3145655095437050  0.8637197613533232
 
  0.00000000E+00  0.00000000E+00  0.00000000E+00
  0.00000000E+00  0.00000000E+00  0.00000000E+00
  0.00000000E+00  0.00000000E+00  0.00000000E+00
  0.00000000E+00  0.00000000E+00  0.00000000E+00
  0.00000000E+00  0.00000000E+00  0.00000000E+00
  0.00000000E+00  0.00000000E+00  0.00000000E+00
  0.00000000E+00  0.00000000E+00  0.00000000E+00
  0.00000000E+00  0.00000000E+00  0.00000000E+00
  0.00000000E+00  0.00000000E+00  0.00000000E+00
  0.00000000E+00  0.00000000E+00  0.00000000E+00
  0.00000000E+00  0.00000000E+00  0.00000000E+00
  0.00000000E+00  0.00000000E+00  0.00000000E+00
  0.00000000E+00  0.00000000E+00  0.00000000E+00
  0.00000000E+00  0.00000000E+00  0.00000000E+00
  0.00000000E+00  0.00000000E+00  0.00000000E+00
  0.00000000E+00  0.00000000E+00  0.00000000E+00
  0.00000000E+00  0.00000000E+00  0.00000000E+00
  0.00000000E+00  0.00000000E+00  0.00000000E+00
  0.00000000E+00  0.00000000E+00  0.00000000E+00
  0.00000000E+00  0.00000000E+00  0.00000000E+00
  0.00000000E+00  0.00000000E+00  0.00000000E+00
  0.00000000E+00  0.00000000E+00  0.00000000E+00
  0.00000000E+00  0.00000000E+00  0.00000000E+00
  0.00000000E+00  0.00000000E+00  0.00000000E+00
  0.00000000E+00  0.00000000E+00  0.00000000E+00
  0.00000000E+00  0.00000000E+00  0.00000000E+00
  0.00000000E+00  0.00000000E+00  0.00000000E+00
  0.00000000E+00  0.00000000E+00  0.00000000E+00
  0.00000000E+00  0.00000000E+00  0.00000000E+00
  0.00000000E+00  0.00000000E+00  0.00000000E+00
  0.00000000E+00  0.00000000E+00  0.00000000E+00
  0.00000000E+00  0.00000000E+00  0.00000000E+00
  0.00000000E+00  0.00000000E+00  0.00000000E+00
  0.00000000E+00  0.00000000E+00  0.00000000E+00
  0.00000000E+00  0.00000000E+00  0.00000000E+00
  0.00000000E+00  0.00000000E+00  0.00000000E+00
  0.00000000E+00  0.00000000E+00  0.00000000E+00
  0.00000000E+00  0.00000000E+00  0.00000000E+00
  0.00000000E+00  0.00000000E+00  0.00000000E+00
  0.00000000E+00  0.00000000E+00  0.00000000E+00
  0.00000000E+00  0.00000000E+00  0.00000000E+00
  0.00000000E+00  0.00000000E+00  0.00000000E+00
  0.00000000E+00  0.00000000E+00  0.00000000E+00
  0.00000000E+00  0.00000000E+00  0.00000000E+00
  0.00000000E+00  0.00000000E+00  0.00000000E+00
  0.00000000E+00  0.00000000E+00  0.00000000E+00
  0.00000000E+00  0.00000000E+00  0.00000000E+00
  0.00000000E+00  0.00000000E+00  0.00000000E+00
  0.00000000E+00  0.00000000E+00  0.00000000E+00
  0.00000000E+00  0.00000000E+00  0.00000000E+00
  0.00000000E+00  0.00000000E+00  0.00000000E+00
  0.00000000E+00  0.00000000E+00  0.00000000E+00
  0.00000000E+00  0.00000000E+00  0.00000000E+00
  0.00000000E+00  0.00000000E+00  0.00000000E+00
  0.00000000E+00  0.00000000E+00  0.00000000E+00
  0.00000000E+00  0.00000000E+00  0.00000000E+00
  0.00000000E+00  0.00000000E+00  0.00000000E+00
  0.00000000E+00  0.00000000E+00  0.00000000E+00
  0.00000000E+00  0.00000000E+00  0.00000000E+00
  0.00000000E+00  0.00000000E+00  0.00000000E+00
  0.00000000E+00  0.00000000E+00  0.00000000E+00
  0.00000000E+00  0.00000000E+00  0.00000000E+00
  0.00000000E+00  0.00000000E+00  0.00000000E+00
  0.00000000E+00  0.00000000E+00  0.00000000E+00
  0.00000000E+00  0.00000000E+00  0.00000000E+00
  0.00000000E+00  0.00000000E+00  0.00000000E+00
  0.00000000E+00  0.00000000E+00  0.00000000E+00
  0.00000000E+00  0.00000000E+00  0.00000000E+00
  0.00000000E+00  0.00000000E+00  0.00000000E+00
  0.00000000E+00  0.00000000E+00  0.00000000E+00
  0.00000000E+00  0.00000000E+00  0.00000000E+00
  0.00000000E+00  0.00000000E+00  0.00000000E+00
  0.00000000E+00  0.00000000E+00  0.00000000E+00
  0.00000000E+00  0.00000000E+00  0.00000000E+00
  0.00000000E+00  0.00000000E+00  0.00000000E+00
  0.00000000E+00  0.00000000E+00  0.00000000E+00
  0.00000000E+00  0.00000000E+00  0.00000000E+00
  0.00000000E+00  0.00000000E+00  0.00000000E+00
  0.00000000E+00  0.00000000E+00  0.00000000E+00
  0.00000000E+00  0.00000000E+00  0.00000000E+00
  0.00000000E+00  0.00000000E+00  0.00000000E+00
  0.00000000E+00  0.00000000E+00  0.00000000E+00
  0.00000000E+00  0.00000000E+00  0.00000000E+00
  0.00000000E+00  0.00000000E+00  0.00000000E+00
  0.00000000E+00  0.00000000E+00  0.00000000E+00
  0.00000000E+00  0.00000000E+00  0.00000000E+00
  0.00000000E+00  0.00000000E+00  0.00000000E+00
  0.00000000E+00  0.00000000E+00  0.00000000E+00
  0.00000000E+00  0.00000000E+00  0.00000000E+00
  0.00000000E+00  0.00000000E+00  0.00000000E+00
  0.00000000E+00  0.00000000E+00  0.00000000E+00
  0.00000000E+00  0.00000000E+00  0.00000000E+00
  0.00000000E+00  0.00000000E+00  0.00000000E+00
  0.00000000E+00  0.00000000E+00  0.00000000E+00
  0.00000000E+00  0.00000000E+00  0.00000000E+00
  0.00000000E+00  0.00000000E+00  0.00000000E+00
  0.00000000E+00  0.00000000E+00  0.00000000E+00
  0.00000000E+00  0.00000000E+00  0.00000000E+00
  0.00000000E+00  0.00000000E+00  0.00000000E+00
  0.00000000E+00  0.00000000E+00  0.00000000E+00
  0.00000000E+00  0.00000000E+00  0.00000000E+00
  0.00000000E+00  0.00000000E+00  0.00000000E+00
  0.00000000E+00  0.00000000E+00  0.00000000E+00
  0.00000000E+00  0.00000000E+00  0.00000000E+00
  0.00000000E+00  0.00000000E+00  0.00000000E+00
  0.00000000E+00  0.00000000E+00  0.00000000E+00
  0.00000000E+00  0.00000000E+00  0.00000000E+00
  0.00000000E+00  0.00000000E+00  0.00000000E+00
  0.00000000E+00  0.00000000E+00  0.00000000E+00
  0.00000000E+00  0.00000000E+00  0.00000000E+00
  0.00000000E+00  0.00000000E+00  0.00000000E+00
  0.00000000E+00  0.00000000E+00  0.00000000E+00
  0.00000000E+00  0.00000000E+00  0.00000000E+00
  0.00000000E+00  0.00000000E+00  0.00000000E+00
  0.00000000E+00  0.00000000E+00  0.00000000E+00
  0.00000000E+00  0.00000000E+00  0.00000000E+00
  0.00000000E+00  0.00000000E+00  0.00000000E+00
  0.00000000E+00  0.00000000E+00  0.00000000E+00
  0.00000000E+00  0.00000000E+00  0.00000000E+00
  0.00000000E+00  0.00000000E+00  0.00000000E+00
  0.00000000E+00  0.00000000E+00  0.00000000E+00
  0.00000000E+00  0.00000000E+00  0.00000000E+00
  0.00000000E+00  0.00000000E+00  0.00000000E+00
  0.00000000E+00  0.00000000E+00  0.00000000E+00
  0.00000000E+00  0.00000000E+00  0.00000000E+00
  0.00000000E+00  0.00000000E+00  0.00000000E+00
  0.00000000E+00  0.00000000E+00  0.00000000E+00
  0.00000000E+00  0.00000000E+00  0.00000000E+00
  0.00000000E+00  0.00000000E+00  0.00000000E+00
  0.00000000E+00  0.00000000E+00  0.00000000E+00
  0.00000000E+00  0.00000000E+00  0.00000000E+00
  0.00000000E+00  0.00000000E+00  0.00000000E+00
  0.00000000E+00  0.00000000E+00  0.00000000E+00
  0.00000000E+00  0.00000000E+00  0.00000000E+00
  0.00000000E+00  0.00000000E+00  0.00000000E+00
  0.00000000E+00  0.00000000E+00  0.00000000E+00
  0.00000000E+00  0.00000000E+00  0.00000000E+00
  0.00000000E+00  0.00000000E+00  0.00000000E+00
  0.00000000E+00  0.00000000E+00  0.00000000E+00
  0.00000000E+00  0.00000000E+00  0.00000000E+00
  0.00000000E+00  0.00000000E+00  0.00000000E+00
  0.00000000E+00  0.00000000E+00  0.00000000E+00
  0.00000000E+00  0.00000000E+00  0.00000000E+00
  0.00000000E+00  0.00000000E+00  0.00000000E+00
  0.00000000E+00  0.00000000E+00  0.00000000E+00
  0.00000000E+00  0.00000000E+00  0.00000000E+00
  0.00000000E+00  0.00000000E+00  0.00000000E+00
  0.00000000E+00  0.00000000E+00  0.00000000E+00
  0.00000000E+00  0.00000000E+00  0.00000000E+00
  0.00000000E+00  0.00000000E+00  0.00000000E+00
  0.00000000E+00  0.00000000E+00  0.00000000E+00
  0.00000000E+00  0.00000000E+00  0.00000000E+00
  0.00000000E+00  0.00000000E+00  0.00000000E+00
  0.00000000E+00  0.00000000E+00  0.00000000E+00
  0.00000000E+00  0.00000000E+00  0.00000000E+00
  0.00000000E+00  0.00000000E+00  0.00000000E+00
  0.00000000E+00  0.00000000E+00  0.00000000E+00
  0.00000000E+00  0.00000000E+00  0.00000000E+00
  0.00000000E+00  0.00000000E+00  0.00000000E+00
  0.00000000E+00  0.00000000E+00  0.00000000E+00
  0.00000000E+00  0.00000000E+00  0.00000000E+00
  0.00000000E+00  0.00000000E+00  0.00000000E+00
  0.00000000E+00  0.00000000E+00  0.00000000E+00
  0.00000000E+00  0.00000000E+00  0.00000000E+00
  0.00000000E+00  0.00000000E+00  0.00000000E+00
  0.00000000E+00  0.00000000E+00  0.00000000E+00
  0.00000000E+00  0.00000000E+00  0.00000000E+00
  0.00000000E+00  0.00000000E+00  0.00000000E+00
  0.00000000E+00  0.00000000E+00  0.00000000E+00
  0.00000000E+00  0.00000000E+00  0.00000000E+00
  0.00000000E+00  0.00000000E+00  0.00000000E+00
  0.00000000E+00  0.00000000E+00  0.00000000E+00
  0.00000000E+00  0.00000000E+00  0.00000000E+00
  0.00000000E+00  0.00000000E+00  0.00000000E+00
  0.00000000E+00  0.00000000E+00  0.00000000E+00
