ISTART = 0
ICHARG = 2
LORBIT = 11
LWAVE = False
LCHARG = False

ISPIN = 1
ALGO = Normal
NBANDS = 101
NELM = 100
EDIFF = 0.001
ENCUT = 520
ISMEAR = 0
PREC = Accurate
SIGMA = 0.001
LMAXMIX = 6
LREAL = False

LDAU = True
LDAUPRINT = 1
LDAUTYPE = 2
LDAUL = -1 2 2 -1
LDAUU = 0.0 3.25 2.0 0.0
LDAUJ = 0.0 0.0 1.0 0.0

IBRION = -1
NSW = 0
ISIF = 3

NCORE = 4
