Mg4 V2 Bi2 O12
1.0
5.520082 0.000000 0.000000
0.000000 6.789477 -3.123128
0.000000 -0.058023 7.473121
Mg V Bi O
4 2 2 12
direct
0.750000 0.101644 0.282490 Mg
0.249999 0.898355 0.717510 Mg
0.750000 0.717510 0.898355 Mg
0.249999 0.282489 0.101644 Mg
0.750000 0.198699 0.801302 V
0.249999 0.801302 0.198698 V
0.249999 0.410496 0.589505 Bi
0.750000 0.589504 0.410496 Bi
0.750000 0.102182 0.548117 O
0.249999 0.897819 0.451883 O
0.249999 0.548116 0.102180 O
0.750000 0.451883 0.897819 O
0.989374 0.882220 0.117781 O
0.489373 0.117781 0.882220 O
0.010627 0.117781 0.882220 O
0.510626 0.882220 0.117781 O
0.500000 0.328550 0.328550 O
0.000000 0.671450 0.671450 O
0.000000 0.328550 0.328550 O
0.500000 0.671450 0.671450 O
